#=======================================================
# FHI-aims file: ./geometry.in
# Created using the Atomic Simulation Environment (ASE)
# Tue Feb 11 11:38:06 2020
#=======================================================
lattice_vector 6.5957600000000003 0.0000000000000000 0.0000000000000000 
lattice_vector -1.5450440000000001 7.2328489999999999 0.0000000000000000 
lattice_vector 0.0000000000000000 0.0000000000000000 135.0600780000000043 
atom_frac 0.7022389999999999 0.7714430000000000 0.3143150000000000 H
atom_frac 0.8527860000000000 0.7481320000000000 0.3552160000000000 H
atom_frac 0.3500430000000000 0.2473650000000000 0.3183350000000000 H
atom_frac 0.7536680000000000 0.3937020000000000 0.3002140000000000 H
atom_frac 0.7996330000000000 0.1252500000000000 0.3410860000000000 H
atom_frac 0.2988840000000000 0.6252560000000000 0.3324350000000000 H
atom_frac 0.5320430000000000 0.8299350000000000 0.3052170000000000 H
atom_frac 0.0220780000000000 0.6893629999999999 0.3460890000000000 H
atom_frac 0.5204460000000000 0.1889920000000000 0.3274020000000000 H
atom_frac 0.8566390000000000 0.5554530000000000 0.3097440000000000 H
atom_frac 0.6981000000000001 0.9643940000000000 0.3506890000000000 H
atom_frac 0.1956740000000000 0.4633950000000000 0.3229210000000000 H
atom_frac 0.2063670000000000 0.2733600000000000 0.3590720000000000 H
atom_frac 0.2593690000000000 0.8961910000000000 0.3731870000000000 H
atom_frac 0.0370650000000000 0.3321490000000000 0.3681990000000000 H
atom_frac 0.3610330000000000 0.0570980000000000 0.3635980000000000 H
atom_frac 0.7090190000000000 0.7739360000000000 0.3959380000000000 H
atom_frac 0.8595670000000000 0.7506260000000000 0.4368390000000000 H
atom_frac 0.3568230000000001 0.2498590000000000 0.3999580000000000 H
atom_frac 0.7604480000000000 0.3961950000000000 0.3818380000000000 H
atom_frac 0.8064130000000000 0.1277440000000000 0.4227090000000000 H
atom_frac 0.3056640000000000 0.6277500000000000 0.4140590000000000 H
atom_frac 0.5388230000000001 0.8324279999999999 0.3868410000000000 H
atom_frac 0.0288580000000000 0.6918570000000001 0.4277120000000000 H
atom_frac 0.5272260000000000 0.1914860000000000 0.4090260000000000 H
atom_frac 0.8634190000000002 0.5579470000000000 0.3913670000000000 H
atom_frac 0.7048810000000000 0.9668869999999999 0.4323130000000000 H
atom_frac 0.2024540000000000 0.4658890000000000 0.4045440000000000 H
atom_frac 0.2131470000000000 0.2758540000000000 0.4406960000000000 H
atom_frac 0.2661490000000000 0.8986850000000000 0.4548110000000000 H
atom_frac 0.0438450000000000 0.3346419999999999 0.4498230000000000 H
atom_frac 0.3678130000000000 0.0595920000000000 0.4452220000000000 H
atom_frac 0.7158010000000001 0.7764300000000000 0.4775770000000000 H
atom_frac 0.8663480000000000 0.7531200000000000 0.5184780000000000 H
atom_frac 0.3636040000000000 0.2523530000000000 0.4815970000000001 H
atom_frac 0.7672289999999999 0.3986900000000000 0.4634760000000000 H
atom_frac 0.8131939999999999 0.1302380000000000 0.5043480000000000 H
atom_frac 0.3124460000000000 0.6302440000000000 0.4956970000000000 H
atom_frac 0.5456050000000000 0.8349220000000001 0.4684790000000000 H
atom_frac 0.0356400000000000 0.6943510000000001 0.5093510000000000 H
atom_frac 0.5340080000000000 0.1939800000000000 0.4906639999999999 H
atom_frac 0.8702010000000000 0.5604410000000000 0.4730060000000000 H
atom_frac 0.7116620000000000 0.9693820000000000 0.5139510000000000 H
atom_frac 0.2092350000000000 0.4683830000000000 0.4861830000000000 H
atom_frac 0.2199280000000000 0.2783480000000000 0.5223340000000000 H
atom_frac 0.2729310000000000 0.9011790000000000 0.5364490000000000 H
atom_frac 0.0506270000000000 0.3371370000000000 0.5314610000000000 H
atom_frac 0.3745940000000000 0.0620860000000000 0.5268600000000000 H
atom_frac 0.7225810000000000 0.7789239999999999 0.5592000000000000 H
atom_frac 0.8731279999999999 0.7556140000000000 0.6001010000000000 H
atom_frac 0.3703850000000000 0.2548470000000000 0.5632200000000001 H
atom_frac 0.7740089999999998 0.4011830000000000 0.5451000000000000 H
atom_frac 0.8199740000000000 0.1327320000000000 0.5859710000000000 H
atom_frac 0.3192260000000000 0.6327380000000000 0.5773210000000000 H
atom_frac 0.5523850000000000 0.8374160000000000 0.5501030000000000 H
atom_frac 0.0424200000000000 0.6968450000000000 0.5909740000000000 H
atom_frac 0.5407880000000000 0.1964740000000000 0.5722880000000000 H
atom_frac 0.8769810000000000 0.5629340000000000 0.5546290000000000 H
atom_frac 0.7184420000000000 0.9718750000000000 0.5955750000000000 H
atom_frac 0.2160160000000000 0.4708770000000000 0.5678060000000000 H
atom_frac 0.2267090000000000 0.2808410000000000 0.6039580000000000 H
atom_frac 0.2797110000000000 0.9036729999999999 0.6180730000000000 H
atom_frac 0.0574070000000000 0.3396300000000000 0.6130850000000000 H
atom_frac 0.3813740000000000 0.0645800000000000 0.6084840000000000 H
atom_frac 0.7293620000000000 0.7814179999999999 0.6408390000000000 H
atom_frac 0.8799100000000000 0.7581080000000000 0.6817400000000000 H
atom_frac 0.3771659999999999 0.2573410000000000 0.6448590000000000 H
atom_frac 0.7807910000000000 0.4036770000000000 0.6267380000000000 H
atom_frac 0.8267560000000000 0.1352260000000000 0.6676100000000000 H
atom_frac 0.3260070000000000 0.6352320000000000 0.6589590000000000 H
atom_frac 0.5591660000000001 0.8399100000000000 0.6317410000000000 H
atom_frac 0.0492010000000000 0.6993390000000000 0.6726120000000000 H
atom_frac 0.5475690000000000 0.1989680000000000 0.6539260000000000 H
atom_frac 0.8837619999999999 0.5654280000000000 0.6362679999999999 H
atom_frac 0.7252240000000000 0.9743690000000000 0.6772130000000000 H
atom_frac 0.2227970000000000 0.4733710000000000 0.6494450000000001 H
atom_frac 0.2334900000000000 0.2833350000000000 0.6855960000000000 H
atom_frac 0.2864920000000000 0.9061669999999999 0.6997110000000000 H
atom_frac 0.0641880000000000 0.3421240000000000 0.6947230000000000 H
atom_frac 0.3881560000000000 0.0670740000000000 0.6901220000000000 H
atom_frac 0.5509510000000000 0.7262130000000000 0.3107260000000000 C
atom_frac 0.0037260000000000 0.7933220000000000 0.3515980000000000 C
atom_frac 0.5014080000000000 0.2926240000000000 0.3218930000000000 C
atom_frac 0.7207060000000000 0.4534080000000000 0.3073020000000000 C
atom_frac 0.8337010000000000 0.0661570000000000 0.3481730000000000 C
atom_frac 0.3316750000000001 0.5654600000000000 0.3253480000000000 C
atom_frac 0.0554070000000000 0.2281800000000000 0.3626900000000000 C
atom_frac 0.2253910000000000 0.9553350000000000 0.3661000000000000 C
atom_frac 0.5577309999999999 0.7287069999999999 0.3923500000000000 C
atom_frac 0.0105060000000000 0.7958150000000001 0.4332210000000000 C
atom_frac 0.5081890000000000 0.2951180000000000 0.4035170000000000 C
atom_frac 0.7274870000000000 0.4559020000000000 0.3889250000000000 C
atom_frac 0.8404820000000000 0.0686510000000000 0.4297970000000000 C
atom_frac 0.3384560000000000 0.5679530000000000 0.4069710000000000 C
atom_frac 0.0621870000000000 0.2306740000000000 0.4443140000000000 C
atom_frac 0.2321710000000000 0.9578280000000000 0.4477230000000000 C
atom_frac 0.5645120000000000 0.7312010000000001 0.4739880000000000 C
atom_frac 0.0172870000000000 0.7983090000000000 0.5148600000000000 C
atom_frac 0.5149700000000000 0.2976120000000000 0.4851549999999999 C
atom_frac 0.7342680000000000 0.4583960000000000 0.4705640000000000 C
atom_frac 0.8472630000000000 0.0711450000000000 0.5114350000000000 C
atom_frac 0.3452370000000000 0.5704470000000000 0.4886100000000000 C
atom_frac 0.0689690000000000 0.2331680000000000 0.5259520000000000 C
atom_frac 0.2389520000000000 0.9603220000000000 0.5293620000000000 C
atom_frac 0.5712930000000001 0.7336940000000000 0.5556120000000000 C
atom_frac 0.0240680000000000 0.8008029999999999 0.5964830000000000 C
atom_frac 0.5217500000000000 0.3001060000000000 0.5667790000000000 C
atom_frac 0.7410480000000000 0.4608900000000000 0.5521870000000000 C
atom_frac 0.8540430000000000 0.0736380000000000 0.5930590000000000 C
atom_frac 0.3520170000000000 0.5729410000000000 0.5702330000000000 C
atom_frac 0.0757490000000000 0.2356620000000000 0.6075760000000000 C
atom_frac 0.2457320000000000 0.9628160000000000 0.6109850000000000 C
atom_frac 0.5780740000000000 0.7361880000000000 0.6372500000000000 C
atom_frac 0.0308490000000000 0.8032970000000001 0.6781220000000000 C
atom_frac 0.5285320000000000 0.3025999999999999 0.6484170000000000 C
atom_frac 0.7478300000000000 0.4633840000000000 0.6338260000000000 C
atom_frac 0.8608250000000000 0.0761320000000000 0.6746970000000000 C
atom_frac 0.3587990000000000 0.5754350000000000 0.6518720000000000 C
atom_frac 0.0825300000000000 0.2381560000000000 0.6892140000000000 C
atom_frac 0.2525140000000000 0.9653100000000000 0.6926240000000000 C
atom_frac 0.5517919999999999 0.5474640000000000 0.3061700000000000 N
atom_frac 0.0022650000000000 0.9717810000000000 0.3470120000000000 N
atom_frac 0.5006380000000000 0.4714240000000000 0.3264640000000000 N
atom_frac 0.3843390000000000 0.7166630000000000 0.3179330000000000 N
atom_frac 0.6679210000000000 0.3021040000000000 0.3147020000000000 N
atom_frac 0.8879120000000000 0.2181420000000000 0.3555280000000000 N
atom_frac 0.3940510000000000 0.4732210000000000 0.2995290000000000 N
atom_frac 0.1594910000000000 0.0459580000000000 0.3403410000000000 N
atom_frac 0.6583700000000000 0.5456370000000000 0.3331050000000000 N
atom_frac 0.2267700000000000 0.8074270000000000 0.3157740000000000 N
atom_frac 0.3281990000000000 0.7120240000000000 0.3565710000000000 N
atom_frac 0.8255100000000000 0.2113600000000000 0.3168610000000000 N
atom_frac 0.0568280000000000 0.0497110000000000 0.3672760000000000 N
atom_frac 0.1712500000000000 0.8034000000000000 0.3587450000000000 N
atom_frac 0.8995710000000000 0.9755239999999999 0.3739320000000000 N
atom_frac 0.7309430000000000 0.3095080000000000 0.3577020000000000 N
atom_frac 0.5585730000000000 0.5499570000000000 0.3877940000000000 N
atom_frac 0.0090450000000000 0.9742749999999999 0.4286350000000000 N
atom_frac 0.5074180000000000 0.4739170000000000 0.4080880000000000 N
atom_frac 0.3911200000000000 0.7191570000000000 0.3995560000000000 N
atom_frac 0.6747010000000000 0.3045980000000000 0.3963250000000000 N
atom_frac 0.8946930000000000 0.2206350000000000 0.4371520000000000 N
atom_frac 0.4008310000000000 0.4757150000000000 0.3811530000000000 N
atom_frac 0.1662710000000000 0.0484510000000000 0.4219650000000000 N
atom_frac 0.6651500000000000 0.5481300000000000 0.4147290000000000 N
atom_frac 0.2335500000000000 0.8099210000000000 0.3973970000000000 N
atom_frac 0.3349790000000000 0.7145170000000000 0.4381940000000000 N
atom_frac 0.8322909999999999 0.2138540000000000 0.3984840000000000 N
atom_frac 0.0636080000000000 0.0522040000000000 0.4489000000000000 N
atom_frac 0.1780300000000000 0.8058940000000000 0.4403680000000000 N
atom_frac 0.9063510000000000 0.9780180000000001 0.4555550000000000 N
atom_frac 0.7377230000000000 0.3120020000000000 0.4393260000000000 N
atom_frac 0.5653540000000000 0.5524520000000001 0.4694320000000000 N
atom_frac 0.0158270000000000 0.9767690000000001 0.5102740000000000 N
atom_frac 0.5142000000000000 0.4764120000000000 0.4897260000000001 N
atom_frac 0.3979009999999999 0.7216510000000000 0.4811950000000000 N
atom_frac 0.6814829999999999 0.3070920000000000 0.4779640000000000 N
atom_frac 0.9014740000000000 0.2231290000000000 0.5187900000000000 N
atom_frac 0.4076120000000000 0.4782090000000000 0.4627910000000000 N
atom_frac 0.1730520000000000 0.0509450000000000 0.5036030000000000 N
atom_frac 0.6719309999999999 0.5506240000000000 0.4963669999999999 N
atom_frac 0.2403320000000000 0.8124150000000000 0.4790360000000000 N
atom_frac 0.3417610000000000 0.7170110000000000 0.5198330000000000 N
atom_frac 0.8390720000000000 0.2163480000000000 0.4801230000000000 N
atom_frac 0.0703900000000000 0.0546980000000000 0.5305380000000000 N
atom_frac 0.1848110000000000 0.8083880000000000 0.5220060000000000 N
atom_frac 0.9131330000000000 0.9805120000000001 0.5371939999999999 N
atom_frac 0.7445050000000000 0.3144960000000000 0.5209640000000000 N
atom_frac 0.5721340000000000 0.5549450000000000 0.5510560000000000 N
atom_frac 0.0226070000000000 0.9792630000000000 0.5918970000000000 N
atom_frac 0.5209800000000000 0.4789050000000000 0.5713500000000000 N
atom_frac 0.4046810000000000 0.7241450000000000 0.5628180000000000 N
atom_frac 0.6882630000000001 0.3095859999999999 0.5595869999999999 N
atom_frac 0.9082540000000000 0.2256230000000000 0.6004140000000000 N
atom_frac 0.4143930000000000 0.4807020000000000 0.5444150000000000 N
atom_frac 0.1798330000000000 0.0534390000000000 0.5852270000000001 N
atom_frac 0.6787119999999999 0.5531180000000000 0.5779910000000000 N
atom_frac 0.2471120000000000 0.8149090000000000 0.5606590000000000 N
atom_frac 0.3485410000000000 0.7195050000000000 0.6014560000000000 N
atom_frac 0.8458520000000000 0.2188420000000000 0.5617460000000000 N
atom_frac 0.0771700000000000 0.0571920000000000 0.6121620000000000 N
atom_frac 0.1915910000000000 0.8108810000000000 0.6036300000000000 N
atom_frac 0.9199130000000000 0.9830050000000000 0.6188170000000000 N
atom_frac 0.7512850000000000 0.3169900000000000 0.6025880000000000 N
atom_frac 0.5789160000000000 0.5574389999999999 0.6326940000000000 N
atom_frac 0.0293880000000000 0.9817570000000000 0.6735360000000000 N
atom_frac 0.5277610000000000 0.4813990000000000 0.6529880000000000 N
atom_frac 0.4114630000000000 0.7266390000000000 0.6444569999999999 N
atom_frac 0.6950440000000000 0.3120800000000000 0.6412260000000000 N
atom_frac 0.9150360000000000 0.2281170000000000 0.6820520000000000 N
atom_frac 0.4211740000000000 0.4831960000000000 0.6260530000000000 N
atom_frac 0.1866140000000000 0.0559330000000000 0.6668650000000000 N
atom_frac 0.6854930000000000 0.5556120000000000 0.6596290000000000 N
atom_frac 0.2538930000000000 0.8174030000000000 0.6422980000000000 N
atom_frac 0.3553220000000000 0.7219989999999999 0.6830950000000000 N
atom_frac 0.8526339999999999 0.2213360000000000 0.6433850000000000 N
atom_frac 0.0839510000000000 0.0596860000000000 0.6938000000000000 N
atom_frac 0.1983730000000000 0.8133749999999998 0.6852680000000000 N
atom_frac 0.9266940000000001 0.9854990000000000 0.7004560000000000 N
atom_frac 0.7580660000000000 0.3194839999999999 0.6842260000000000 N
atom_frac 0.2624250000000000 0.5663610000000000 0.2978920000000000 O
atom_frac 0.2913050000000000 0.9530080000000000 0.3387030000000000 O
atom_frac 0.7899850000000000 0.4524860000000000 0.3347280000000000 O
atom_frac 0.3972810000000001 0.3194280000000000 0.2961640000000000 O
atom_frac 0.1556400000000000 0.1995140000000000 0.3369610000000000 O
atom_frac 0.6551709999999999 0.6994300000000000 0.3364850000000000 O
atom_frac 0.2624230000000000 0.9362940000000000 0.3097880000000000 O
atom_frac 0.2914860000000000 0.5826020000000000 0.3506300000000000 O
atom_frac 0.7898060000000000 0.0824430000000000 0.3228310000000000 O
atom_frac 0.0621050000000000 0.7541490000000000 0.3204040000000000 O
atom_frac 0.9902069999999999 0.2646690000000000 0.3122450000000000 O
atom_frac 0.5656930000000000 0.2561780000000000 0.3531310000000000 O
atom_frac 0.7677570000000000 0.0684840000000000 0.3755700000000000 O
atom_frac 0.9033620000000000 0.8219470000000000 0.3773120000000000 O
atom_frac 0.7676780000000000 0.4389400000000000 0.3636580000000000 O
atom_frac 0.4934390000000000 0.7653329999999999 0.3611420000000000 O
atom_frac 0.2692050000000000 0.5688540000000000 0.3795150000000000 O
atom_frac 0.2980850000000000 0.9555010000000000 0.4203270000000000 O
atom_frac 0.7967649999999999 0.4549800000000000 0.4163520000000000 O
atom_frac 0.4040610000000000 0.3219220000000000 0.3777880000000000 O
atom_frac 0.1624200000000000 0.2020080000000000 0.4185850000000000 O
atom_frac 0.6619510000000000 0.7019240000000000 0.4181080000000000 O
atom_frac 0.2692030000000000 0.9387880000000000 0.3914120000000000 O
atom_frac 0.2982660000000000 0.5850959999999999 0.4322530000000000 O
atom_frac 0.7965869999999999 0.0849360000000000 0.4044550000000000 O
atom_frac 0.0688850000000000 0.7566420000000000 0.4020280000000000 O
atom_frac 0.9969870000000001 0.2671630000000000 0.3938690000000000 O
atom_frac 0.5724730000000000 0.2586720000000000 0.4347550000000000 O
atom_frac 0.7745370000000000 0.0709780000000000 0.4571930000000000 O
atom_frac 0.9101420000000001 0.8244410000000000 0.4589350000000000 O
atom_frac 0.7744579999999999 0.4414340000000000 0.4452820000000000 O
atom_frac 0.5002190000000000 0.7678270000000001 0.4427650000000000 O
atom_frac 0.2759860000000000 0.5713490000000000 0.4611540000000000 O
atom_frac 0.3048660000000000 0.9579950000000000 0.5019650000000000 O
atom_frac 0.8035460000000000 0.4574740000000000 0.4979900000000000 O
atom_frac 0.4108430000000000 0.3244160000000000 0.4594260000000000 O
atom_frac 0.1692020000000000 0.2045020000000000 0.5002230000000000 O
atom_frac 0.6687320000000001 0.7044180000000000 0.4997469999999999 O
atom_frac 0.2759850000000000 0.9412820000000000 0.4730500000000000 O
atom_frac 0.3050470000000000 0.5875899999999999 0.5138920000000000 O
atom_frac 0.8033680000000000 0.0874310000000000 0.4860930000000000 O
atom_frac 0.0756660000000000 0.7591360000000000 0.4836660000000000 O
atom_frac 0.0037690000000000 0.2696570000000000 0.4755070000000000 O
atom_frac 0.5792550000000000 0.2611660000000000 0.5163930000000000 O
atom_frac 0.7813190000000000 0.0734720000000000 0.5388309999999999 O
atom_frac 0.9169230000000000 0.8269350000000000 0.5405740000000000 O
atom_frac 0.7812390000000000 0.4439280000000000 0.5269200000000001 O
atom_frac 0.5070000000000000 0.7703210000000000 0.5244040000000000 O
atom_frac 0.2827660000000000 0.5738420000000000 0.5427770000000000 O
atom_frac 0.3116470000000000 0.9604890000000000 0.5835890000000000 O
atom_frac 0.8103260000000000 0.4599680000000000 0.5796130000000000 O
atom_frac 0.4176230000000000 0.3269090000000000 0.5410500000000000 O
atom_frac 0.1759820000000000 0.2069960000000000 0.5818470000000000 O
atom_frac 0.6755120000000000 0.7069110000000000 0.5813700000000001 O
atom_frac 0.2827650000000000 0.9437759999999999 0.5546740000000000 O
atom_frac 0.3118270000000000 0.5900830000000000 0.5955150000000000 O
atom_frac 0.8101480000000000 0.0899240000000000 0.5677170000000000 O
atom_frac 0.0824470000000000 0.7616300000000000 0.5652900000000000 O
atom_frac 0.0105490000000000 0.2721510000000000 0.5571310000000000 O
atom_frac 0.5860350000000000 0.2636600000000000 0.5980170000000000 O
atom_frac 0.7880990000000000 0.0759650000000000 0.6204550000000000 O
atom_frac 0.9237040000000000 0.8294290000000000 0.6221970000000000 O
atom_frac 0.7880190000000000 0.4464210000000000 0.6085440000000000 O
atom_frac 0.5137800000000000 0.7728150000000000 0.6060270000000000 O
atom_frac 0.2895480000000000 0.5763360000000000 0.6244160000000000 O
atom_frac 0.3184280000000000 0.9629830000000000 0.6652270000000000 O
atom_frac 0.8171079999999999 0.4624620000000000 0.6612520000000000 O
atom_frac 0.4244040000000000 0.3294039999999999 0.6226880000000000 O
atom_frac 0.1827630000000000 0.2094900000000000 0.6634850000000000 O
atom_frac 0.6822940000000000 0.7094050000000000 0.6630090000000000 O
atom_frac 0.2895460000000000 0.9462699999999999 0.6363120000000000 O
atom_frac 0.3186090000000000 0.5925780000000000 0.6771540000000000 O
atom_frac 0.8169300000000000 0.0924180000000000 0.6493550000000000 O
atom_frac 0.0892280000000000 0.7641239999999999 0.6469279999999999 O
atom_frac 0.0173300000000000 0.2746450000000000 0.6387690000000000 O
atom_frac 0.5928160000000000 0.2661540000000000 0.6796550000000000 O
atom_frac 0.7948800000000000 0.0784590000000000 0.7020930000000000 O
atom_frac 0.9304849999999999 0.8319230000000000 0.7038360000000000 O
atom_frac 0.7948009999999999 0.4489160000000000 0.6901820000000000 O
atom_frac 0.5205620000000000 0.7753090000000000 0.6876660000000000 O
