lattice_vector 9.6739 0.0 5.92355533513579e-16
lattice_vector -1.1860091926342541e-15 19.369 1.1860091926342541e-15
lattice_vector 0.0 0.0 24.6898
atom 6.17969 0.93940 13.09794 H
atom 8.33116 18.42960 0.75304 H
atom 1.34274 8.74510 11.59186 H
atom 3.49421 10.62390 23.93676 H
atom 3.49421 18.42960 11.59186 H
atom 1.34274 0.93940 23.93676 H
atom 8.33116 10.62390 13.09794 H
atom 6.17969 8.74510 0.75304 H
atom 5.81498 18.78406 12.76956 H
atom 8.69587 0.58494 0.42466 H
atom 0.97803 10.26944 11.92024 H
atom 3.85892 9.09956 24.26513 H
atom 3.85892 0.58494 11.92024 H
atom 0.97803 18.78406 24.26513 H
atom 8.69587 9.09956 12.76956 H
atom 5.81498 10.26944 0.42466 H
atom 7.30670 19.31670 12.54242 H
atom 7.20415 0.05230 0.19752 H
atom 2.46975 9.73680 12.14738 H
atom 2.36720 9.63220 24.49228 H
atom 2.36720 0.05230 12.14738 H
atom 2.46975 19.31670 24.49228 H
atom 7.20415 9.63220 12.54242 H
atom 7.30670 9.73680 0.19752 H
atom 9.08379 17.21904 16.24342 H
atom 5.42706 2.14996 3.89852 H
atom 4.24684 11.83446 8.44638 H
atom 0.59011 7.53454 20.79128 H
atom 0.59011 2.14996 8.44638 H
atom 4.24684 17.21904 20.79128 H
atom 5.42706 7.53454 16.24342 H
atom 9.08379 11.83446 3.89852 H
atom 6.37413 0.51134 17.67049 H
atom 8.13672 18.85766 5.32559 H
atom 1.53718 9.17316 7.01931 H
atom 3.29977 10.19584 19.36421 H
atom 3.29977 18.85766 7.01931 H
atom 1.53718 0.51134 19.36421 H
atom 8.13672 10.19584 17.67049 H
atom 6.37413 9.17316 5.32559 H
atom 0.97126 4.70279 12.87079 H
atom 3.86569 14.66621 0.52589 H
atom 5.80821 4.98171 11.81901 H
atom 8.70264 14.38729 24.16391 H
atom 8.70264 14.66621 11.81901 H
atom 5.80821 4.70279 24.16391 H
atom 3.86569 14.38729 12.87079 H
atom 0.97126 4.98171 0.52589 H
atom 9.32757 2.95377 13.57692 H
atom 5.18328 16.41523 1.23202 H
atom 4.49062 6.73073 11.11288 H
atom 0.34633 12.63827 23.45778 H
atom 0.34633 16.41523 11.11288 H
atom 4.49062 2.95377 23.45778 H
atom 5.18328 12.63827 13.57692 H
atom 9.32757 6.73073 1.23202 H
atom 2.42912 2.02406 16.37428 H
atom 2.40783 17.34494 4.02938 H
atom 7.26607 7.66044 8.31553 H
atom 7.24478 11.70856 20.66043 H
atom 7.24478 17.34494 8.31553 H
atom 7.26607 2.02406 20.66043 H
atom 2.40783 11.70856 16.37428 H
atom 2.42912 7.66044 4.02938 H
atom 3.67705 3.84862 15.75950 H
atom 1.15990 15.52038 3.41460 H
atom 8.51400 5.83588 8.93030 H
atom 5.99685 13.53312 21.27520 H
atom 5.99685 15.52038 8.93030 H
atom 8.51400 3.84862 21.27520 H
atom 1.15990 13.53312 15.75950 H
atom 3.67705 5.83588 3.41460 H
atom 8.79648 5.77196 16.19157 H
atom 5.71437 13.59704 3.84667 H
atom 3.95953 3.91254 8.49823 H
atom 0.87742 15.45646 20.84313 H
atom 0.87742 13.59704 8.49823 H
atom 3.95953 5.77196 20.84313 H
atom 5.71437 15.45646 16.19157 H
atom 8.79648 3.91254 3.84667 H
atom 0.70910 5.28193 17.84085 H
atom 4.12785 14.08707 5.49595 H
atom 5.54605 4.40257 6.84895 H
atom 8.96480 14.96643 19.19385 H
atom 8.96480 14.08707 6.84895 H
atom 5.54605 5.28193 19.19385 H
atom 4.12785 14.96643 17.84085 H
atom 0.70910 4.40257 5.49595 H
atom 6.51053 0.01608 13.11004 C
atom 8.00032 19.35292 0.76514 C
atom 1.67358 9.66842 11.57976 C
atom 3.16337 9.70058 23.92466 C
atom 3.16337 19.35292 11.57976 C
atom 1.67358 0.01608 23.92466 C
atom 8.00032 9.70058 13.11004 C
atom 6.51053 9.66842 0.76514 C
atom 6.86363 18.99634 14.51933 C
atom 7.64722 0.37266 2.17443 C
atom 2.02668 10.05716 10.17047 C
atom 2.81027 9.31184 22.51537 C
atom 2.81027 0.37266 10.17047 C
atom 2.02668 18.99634 22.51537 C
atom 7.64722 9.31184 14.51933 C
atom 6.86363 10.05716 2.17443 C
atom 7.86972 18.06062 14.80771 C
atom 6.64113 1.30838 2.46281 C
atom 3.03277 10.99288 9.88209 C
atom 1.80418 8.37612 22.22699 C
atom 1.80418 1.30838 9.88209 C
atom 3.03277 18.06062 22.22699 C
atom 6.64113 8.37612 14.80771 C
atom 7.86972 10.99288 2.46281 C
atom 8.37953 17.83730 16.09380 C
atom 6.13132 1.53170 3.74890 C
atom 3.54258 11.21620 8.59600 C
atom 1.29437 8.15280 20.94090 C
atom 1.29437 1.53170 8.59600 C
atom 3.54258 17.83730 20.94090 C
atom 6.13132 8.15280 16.09380 C
atom 8.37953 11.21620 3.74890 C
atom 7.82425 18.54408 17.13126 C
atom 6.68660 0.82493 4.78636 C
atom 2.98730 10.50943 7.55854 C
atom 1.84965 8.85957 19.90343 C
atom 1.84965 0.82493 7.55854 C
atom 2.98730 18.54408 19.90343 C
atom 6.68660 8.85957 17.13126 C
atom 7.82425 10.50943 4.78636 C
atom 6.77076 0.05249 16.93819 C
atom 7.74009 19.31651 4.59329 C
atom 1.93381 9.63201 7.75161 C
atom 2.90314 9.73699 20.09651 C
atom 2.90314 19.31651 7.75161 C
atom 1.93381 0.05249 20.09651 C
atom 7.74009 9.73699 16.93819 C
atom 6.77076 9.63201 4.59329 C
atom 6.31609 0.24056 15.65457 C
atom 8.19476 19.12844 3.30967 C
atom 1.47914 9.44394 9.03523 C
atom 3.35781 9.92506 21.38013 C
atom 3.35781 19.12844 9.03523 C
atom 1.47914 0.24056 21.38013 C
atom 8.19476 9.92506 15.65457 C
atom 6.31609 9.44394 3.30967 C
atom 1.05155 4.56121 13.85715 C
atom 3.78540 14.80779 1.51225 C
atom 5.88850 5.12329 10.83265 C
atom 8.62235 14.24571 23.17755 C
atom 8.62235 14.80779 10.83265 C
atom 5.88850 4.56121 23.17755 C
atom 3.78540 14.24571 13.85715 C
atom 1.05155 5.12329 1.51225 C
atom 0.17413 3.34386 14.33786 C
atom 4.66282 16.02514 1.99296 C
atom 5.01108 6.34064 10.35194 C
atom 9.49977 13.02836 22.69684 C
atom 9.49977 16.02514 10.35194 C
atom 5.01108 3.34386 22.69684 C
atom 4.66282 13.02836 14.33786 C
atom 0.17413 6.34064 1.99296 C
atom 1.84481 2.77287 16.05750 C
atom 2.99214 16.59613 3.71261 C
atom 6.68176 6.91163 8.63229 C
atom 7.82909 12.45737 20.97719 C
atom 7.82909 16.59613 8.63229 C
atom 6.68176 2.77287 20.97719 C
atom 2.99214 12.45737 16.05750 C
atom 1.84481 6.91163 3.71261 C
atom 2.70095 4.01771 15.61877 C
atom 2.13600 15.35129 3.27387 C
atom 7.53790 5.66679 9.07103 C
atom 6.97295 13.70221 21.41593 C
atom 6.97295 15.35129 9.07103 C
atom 7.53790 4.01771 21.41593 C
atom 2.13600 13.70221 15.61877 C
atom 2.70095 5.66679 3.27387 C
atom 9.50751 5.15680 15.85110 C
atom 5.00334 14.21220 3.50620 C
atom 4.67056 4.52770 8.83870 C
atom 0.16639 14.84130 21.18360 C
atom 0.16639 14.21220 8.83870 C
atom 4.67056 5.15680 21.18360 C
atom 5.00334 14.84130 15.85110 C
atom 9.50751 4.52770 3.50620 C
atom 0.90451 4.81010 16.98066 C
atom 3.93244 14.55890 4.63576 C
atom 5.74146 4.87440 7.70914 C
atom 8.76939 14.49460 20.05404 C
atom 8.76939 14.55890 7.70914 C
atom 5.74146 4.81010 20.05404 C
atom 3.93244 14.49460 16.98066 C
atom 0.90451 4.87440 4.63576 C
atom 8.49175 17.27676 13.73321 N
atom 6.01910 2.09224 1.38831 N
atom 3.65480 11.77674 10.95659 N
atom 1.18215 7.59226 23.30149 N
atom 1.18215 2.09224 10.95659 N
atom 3.65480 17.27676 23.30149 N
atom 6.01910 7.59226 13.73321 N
atom 8.49175 11.77674 1.38831 N
atom 8.40565 18.42476 18.47217 N
atom 6.10520 0.94424 6.12727 N
atom 3.56870 10.62874 6.21763 N
atom 1.26825 8.74026 18.56253 N
atom 1.26825 0.94424 6.21763 N
atom 3.56870 18.42476 18.56253 N
atom 6.10520 8.74026 18.47217 N
atom 8.40565 10.62874 6.12727 N
atom 5.18618 1.19507 15.52988 N
atom 9.32467 18.17393 3.18498 N
atom 0.34923 8.48943 9.15992 N
atom 4.48772 10.87957 21.50482 N
atom 4.48772 18.17393 9.15992 N
atom 0.34923 1.19507 21.50482 N
atom 9.32467 10.87957 15.52988 N
atom 5.18618 8.48943 3.18498 N
atom 3.46132 4.51724 13.35397 N
atom 1.37563 14.85176 1.00907 N
atom 8.29827 5.16726 11.33583 N
atom 6.21258 14.20174 23.68073 N
atom 6.21258 14.85176 11.33583 N
atom 8.29827 4.51724 23.68073 N
atom 1.37563 14.20174 13.35397 N
atom 3.46132 5.16726 1.00907 N
atom 2.42525 4.32452 14.24873 N
atom 2.41170 15.04448 1.90383 N
atom 7.26220 5.35998 10.44107 N
atom 7.24865 14.00902 22.78597 N
atom 7.24865 15.04448 10.44107 N
atom 7.26220 4.32452 22.78597 N
atom 2.41170 14.00902 14.24873 N
atom 2.42525 5.35998 1.90383 N
atom 0.84647 0.99867 14.64550 N
atom 3.99048 18.37033 2.30060 N
atom 5.68342 8.68583 10.04430 N
atom 8.82743 10.68317 22.38920 N
atom 8.82743 18.37033 10.04430 N
atom 5.68342 0.99867 22.38920 N
atom 3.99048 10.68317 14.64550 N
atom 0.84647 8.68583 2.30060 N
atom 1.03898 2.36728 14.92498 N
atom 3.79797 17.00172 2.58008 N
atom 5.87593 7.31722 9.76482 N
atom 8.63492 12.05178 22.10972 N
atom 8.63492 17.00172 9.76482 N
atom 5.87593 2.36728 22.10972 N
atom 3.79797 12.05178 14.92498 N
atom 1.03898 7.31722 2.58008 N
atom 0.98674 6.92287 14.56674 N
atom 3.85021 12.44613 2.22184 N
atom 5.82369 2.76163 10.12306 N
atom 8.68716 16.60737 22.46796 N
atom 8.68716 12.44613 10.12306 N
atom 5.82369 6.92287 22.46796 N
atom 3.85021 16.60737 14.56674 N
atom 0.98674 2.76163 2.22184 N
atom 0.42662 5.65052 14.60821 N
atom 4.41033 13.71848 2.26331 N
atom 5.26357 4.03398 10.08159 N
atom 9.24728 15.33502 22.42649 N
atom 9.24728 13.71848 10.08159 N
atom 5.26357 5.65052 22.42649 N
atom 4.41033 15.33502 14.60821 N
atom 0.42662 4.03398 2.26331 N
atom 3.17207 5.59047 17.44408 N
atom 1.66488 13.77853 5.09918 N
atom 8.00902 4.09403 7.24572 N
atom 6.50183 15.27497 19.59062 N
atom 6.50183 13.77853 7.24572 N
atom 8.00902 5.59047 19.59062 N
atom 1.66488 15.27497 17.44408 N
atom 3.17207 4.09403 5.09918 N
atom 2.22887 5.13801 16.46538 N
atom 2.60808 14.23099 4.12048 N
atom 7.06582 4.54649 8.22442 N
atom 7.44503 14.82251 20.56932 N
atom 7.44503 14.23099 8.22442 N
atom 7.06582 5.13801 20.56932 N
atom 2.60808 14.82251 16.46538 N
atom 2.22887 4.54649 4.12048 N
atom 7.55435 3.89065 15.05090 N
atom 6.95650 15.47835 2.70600 N
atom 2.71740 5.79385 9.63890 N
atom 2.11955 13.57515 21.98380 N
atom 2.11955 15.47835 9.63890 N
atom 2.71740 3.89065 21.98380 N
atom 6.95650 13.57515 15.05090 N
atom 7.55435 5.79385 2.70600 N
atom 8.94836 3.90750 15.36051 N
atom 5.56249 15.46150 3.01561 N
atom 4.11141 5.77700 9.32929 N
atom 0.72554 13.59200 21.67419 N
atom 0.72554 15.46150 9.32929 N
atom 4.11141 3.90750 21.67419 N
atom 5.56249 13.59200 15.36051 N
atom 8.94836 5.77700 3.01561 N
atom 0.00580 2.63786 17.66802 N
atom 4.83115 16.73114 5.32312 N
atom 4.84275 7.04664 7.02178 N
atom 9.66810 12.32236 19.36668 N
atom 9.66810 16.73114 7.02178 N
atom 4.84275 2.63786 19.36668 N
atom 4.83115 12.32236 17.66802 N
atom 0.00580 7.04664 5.32312 N
atom 1.06897 3.35549 17.17398 N
atom 3.76798 16.01351 4.82908 N
atom 5.90592 6.32901 7.51582 N
atom 8.60493 13.03999 19.86072 N
atom 8.60493 16.01351 7.51582 N
atom 5.90592 3.35549 19.86072 N
atom 3.76798 13.03999 17.17398 N
atom 1.06897 6.32901 4.82908 N
atom 7.80103 16.97325 12.77450 O
atom 6.70982 2.39575 0.42960 O
atom 2.96408 12.08025 11.91530 O
atom 1.87287 7.28875 24.26020 O
atom 1.87287 2.39575 11.91530 O
atom 2.96408 16.97325 24.26020 O
atom 6.70982 7.28875 12.77450 O
atom 7.80103 12.08025 0.42960 O
atom 9.66132 16.93122 13.87641 O
atom 4.84953 2.43778 1.53151 O
atom 4.82437 12.12228 10.81339 O
atom 0.01258 7.24672 23.15829 O
atom 0.01258 2.43778 10.81339 O
atom 4.82437 16.93122 23.15829 O
atom 4.84953 7.24672 13.87641 O
atom 9.66132 12.12228 1.53151 O
atom 9.40787 17.72380 18.58549 O
atom 5.10298 1.64520 6.24059 O
atom 4.57092 11.32970 6.10431 O
atom 0.26603 8.03930 18.44921 O
atom 0.26603 1.64520 6.10431 O
atom 4.57092 17.72380 18.44921 O
atom 5.10298 8.03930 18.58549 O
atom 9.40787 11.32970 6.24059 O
atom 7.88907 19.05793 19.37779 O
atom 6.62178 0.31107 7.03289 O
atom 3.05212 9.99557 5.31201 O
atom 1.78483 9.37343 17.65691 O
atom 1.78483 0.31107 5.31201 O
atom 3.05212 19.05793 17.65691 O
atom 6.62178 9.37343 19.37779 O
atom 7.88907 9.99557 7.03289 O
atom 5.08847 2.05834 16.39674 O
atom 9.42238 17.31066 4.05184 O
atom 0.25152 7.62616 8.29306 O
atom 4.58543 11.74284 20.63796 O
atom 4.58543 17.31066 8.29306 O
atom 0.25152 2.05834 20.63796 O
atom 9.42238 11.74284 16.39674 O
atom 5.08847 7.62616 4.05184 O
atom 4.39098 1.06026 14.61587 O
atom 0.44597 18.30874 2.27097 O
atom 9.22793 8.62424 10.07393 O
atom 5.28292 10.74476 22.41883 O
atom 5.28292 18.30874 10.07393 O
atom 9.22793 1.06026 22.41883 O
atom 0.44597 10.74476 14.61587 O
atom 4.39098 8.62424 2.27097 O
atom 4.58349 4.26409 13.74827 O
atom 0.25346 15.10491 1.40337 O
atom 9.42044 5.42041 10.94153 O
atom 5.09041 13.94859 23.28643 O
atom 5.09041 15.10491 10.94153 O
atom 9.42044 4.26409 23.28643 O
atom 0.25346 13.94859 13.74827 O
atom 4.58349 5.42041 1.40337 O
atom 3.16143 4.90152 12.22812 O
atom 1.67552 14.46748 24.57302 O
atom 7.99838 4.78298 12.46168 O
atom 6.51247 14.58602 0.11678 O
atom 6.51247 14.46748 12.46168 O
atom 7.99838 4.90152 0.11678 O
atom 1.67552 14.58602 12.22812 O
atom 3.16143 4.78298 24.57302 O
atom 0.03192 0.75481 13.76358 O
atom 4.80503 18.61419 1.41868 O
atom 4.86887 8.92969 10.92622 O
atom 9.64198 10.43931 23.27112 O
atom 9.64198 18.61419 10.92622 O
atom 4.86887 0.75481 23.27112 O
atom 4.80503 10.43931 13.76358 O
atom 0.03192 8.92969 1.41868 O
atom 1.52170 0.21170 15.25904 O
atom 3.31525 19.15730 2.91414 O
atom 6.35865 9.47280 9.43076 O
atom 8.15220 9.89620 21.77566 O
atom 8.15220 19.15730 9.43076 O
atom 6.35865 0.21170 21.77566 O
atom 3.31525 9.89620 15.25904 O
atom 1.52170 9.47280 2.91414 O
atom 1.73356 7.15530 13.64309 O
atom 3.10339 12.21370 1.29819 O
atom 6.57051 2.52920 11.04671 O
atom 7.94034 16.83980 23.39161 O
atom 7.94034 12.21370 11.04671 O
atom 6.57051 7.15530 23.39161 O
atom 3.10339 16.83980 13.64309 O
atom 1.73356 2.52920 1.29819 O
atom 0.63074 7.67903 15.45804 O
atom 4.20621 11.68997 3.11314 O
atom 5.46769 2.00547 9.23176 O
atom 9.04316 17.36353 21.57666 O
atom 9.04316 11.68997 9.23176 O
atom 5.46769 7.67903 21.57666 O
atom 4.20621 17.36353 15.45804 O
atom 0.63074 2.00547 3.11314 O
atom 4.33778 5.54399 17.09102 O
atom 0.49917 13.82501 4.74612 O
atom 9.17473 4.14051 7.59878 O
atom 5.33612 15.22849 19.94368 O
atom 5.33612 13.82501 7.59878 O
atom 9.17473 5.54399 19.94368 O
atom 0.49917 15.22849 17.09102 O
atom 4.33778 4.14051 4.74612 O
atom 2.73094 6.03635 18.48328 O
atom 2.10601 13.33265 6.13838 O
atom 7.56789 3.64815 6.20652 O
atom 6.94296 15.72085 18.55142 O
atom 6.94296 13.33265 6.20652 O
atom 7.56789 6.03635 18.55142 O
atom 2.10601 15.72085 18.48328 O
atom 2.73094 3.64815 6.13838 O
atom 7.17707 2.92956 14.43069 O
atom 7.33378 16.43944 2.08579 O
atom 2.34012 6.75494 10.25911 O
atom 2.49683 12.61406 22.60401 O
atom 2.49683 16.43944 10.25911 O
atom 2.34012 2.92956 22.60401 O
atom 7.33378 12.61406 14.43069 O
atom 7.17707 6.75494 2.08579 O
atom 6.88201 4.79189 15.52272 O
atom 7.62884 14.57711 3.17782 O
atom 2.04506 4.89261 9.16708 O
atom 2.79189 14.47639 21.51198 O
atom 2.79189 14.57711 9.16708 O
atom 2.04506 4.79189 21.51198 O
atom 7.62884 14.47639 15.52272 O
atom 6.88201 4.89261 3.17782 O
atom 0.07642 1.41917 17.54136 O
atom 4.76053 17.94983 5.19646 O
atom 4.91337 8.26533 7.14844 O
atom 9.59748 11.10367 19.49334 O
atom 9.59748 17.94983 7.14844 O
atom 4.91337 1.41917 19.49334 O
atom 4.76053 11.10367 17.54136 O
atom 0.07642 8.26533 5.19646 O
atom 8.78390 3.26329 18.20873 O
atom 5.72695 16.10571 5.86383 O
atom 3.94695 6.42121 6.48107 O
atom 0.89000 12.94779 18.82597 O
atom 0.89000 16.10571 6.48107 O
atom 3.94695 3.26329 18.82597 O
atom 5.72695 12.94779 18.20873 O
atom 8.78390 6.42121 5.86383 O
