#=======================================================
# FHI-aims file: ./geometry.in
# Created using the Atomic Simulation Environment (ASE)
# Tue Feb 11 11:38:03 2020
#=======================================================
lattice_vector 6.5957600000000003 0.0000000000000000 0.0000000000000000 
lattice_vector -1.5450440000000001 7.2328489999999999 0.0000000000000000 
lattice_vector 0.0000000000000000 0.0000000000000000 124.0339850000000013 
atom_frac 0.7022389999999999 0.7714430000000000 0.3422560000000000 H
atom_frac 0.8527860000000000 0.7481320000000000 0.3867930000000000 H
atom_frac 0.3500430000000000 0.2473650000000000 0.3466330000000000 H
atom_frac 0.7536680000000000 0.3937020000000000 0.3269020000000000 H
atom_frac 0.7996330000000000 0.1252500000000000 0.3714070000000000 H
atom_frac 0.2988840000000000 0.6252560000000000 0.3619870000000000 H
atom_frac 0.5320430000000000 0.8299350000000000 0.3323500000000000 H
atom_frac 0.0220780000000000 0.6893629999999999 0.3768540000000000 H
atom_frac 0.5204460000000000 0.1889920000000000 0.3565070000000000 H
atom_frac 0.8566390000000000 0.5554530000000000 0.3372780000000000 H
atom_frac 0.6981000000000001 0.9643940000000000 0.3818640000000000 H
atom_frac 0.1956740000000000 0.4633950000000000 0.3516270000000000 H
atom_frac 0.2063670000000000 0.2733600000000000 0.3909920000000000 H
atom_frac 0.2593690000000000 0.8961910000000000 0.4063620000000000 H
atom_frac 0.0370650000000000 0.3321490000000000 0.4009310000000000 H
atom_frac 0.3610330000000000 0.0570980000000000 0.3959210000000000 H
atom_frac 0.7090190000000000 0.7739360000000000 0.4311350000000000 H
atom_frac 0.8595670000000000 0.7506260000000000 0.4756720000000000 H
atom_frac 0.3568230000000001 0.2498590000000000 0.4355130000000000 H
atom_frac 0.7604480000000000 0.3961950000000000 0.4157820000000000 H
atom_frac 0.8064130000000000 0.1277440000000000 0.4602860000000000 H
atom_frac 0.3056640000000000 0.6277500000000000 0.4508670000000000 H
atom_frac 0.5388230000000001 0.8324279999999999 0.4212290000000000 H
atom_frac 0.0288580000000000 0.6918570000000001 0.4657340000000000 H
atom_frac 0.5272260000000000 0.1914860000000000 0.4453870000000000 H
atom_frac 0.8634190000000002 0.5579470000000000 0.4261580000000000 H
atom_frac 0.7048810000000000 0.9668869999999999 0.4707440000000000 H
atom_frac 0.2024540000000000 0.4658890000000000 0.4405060000000000 H
atom_frac 0.2131470000000000 0.2758540000000000 0.4798720000000000 H
atom_frac 0.2661490000000000 0.8986850000000000 0.4952410000000000 H
atom_frac 0.0438450000000000 0.3346419999999999 0.4898100000000000 H
atom_frac 0.3678130000000000 0.0595920000000000 0.4848000000000000 H
atom_frac 0.7158010000000001 0.7764300000000000 0.5200310000000000 H
atom_frac 0.8663480000000000 0.7531200000000000 0.5645680000000000 H
atom_frac 0.3636040000000000 0.2523530000000000 0.5244090000000000 H
atom_frac 0.7672289999999999 0.3986900000000000 0.5046770000000000 H
atom_frac 0.8131939999999999 0.1302380000000000 0.5491819999999999 H
atom_frac 0.3124460000000000 0.6302440000000000 0.5397620000000000 H
atom_frac 0.5456050000000000 0.8349220000000001 0.5101250000000001 H
atom_frac 0.0356400000000000 0.6943510000000001 0.5546300000000000 H
atom_frac 0.5340080000000000 0.1939800000000000 0.5342820000000000 H
atom_frac 0.8702010000000000 0.5604410000000000 0.5150540000000000 H
atom_frac 0.7116620000000000 0.9693820000000000 0.5596390000000000 H
atom_frac 0.2092350000000000 0.4683830000000000 0.5294020000000000 H
atom_frac 0.2199280000000000 0.2783480000000000 0.5687670000000000 H
atom_frac 0.2729310000000000 0.9011790000000000 0.5841370000000000 H
atom_frac 0.0506270000000000 0.3371370000000000 0.5787060000000001 H
atom_frac 0.3745940000000000 0.0620860000000000 0.5736960000000000 H
atom_frac 0.7225810000000000 0.7789239999999999 0.6089110000000000 H
atom_frac 0.8731279999999999 0.7556140000000000 0.6534480000000000 H
atom_frac 0.3703850000000000 0.2548470000000000 0.6132880000000001 H
atom_frac 0.7740089999999998 0.4011830000000000 0.5935570000000000 H
atom_frac 0.8199740000000000 0.1327320000000000 0.6380620000000000 H
atom_frac 0.3192260000000000 0.6327380000000000 0.6286420000000000 H
atom_frac 0.5523850000000000 0.8374160000000000 0.5990050000000000 H
atom_frac 0.0424200000000000 0.6968450000000000 0.6435090000000000 H
atom_frac 0.5407880000000000 0.1964740000000000 0.6231620000000000 H
atom_frac 0.8769810000000000 0.5629340000000000 0.6039330000000001 H
atom_frac 0.7184420000000000 0.9718750000000000 0.6485190000000000 H
atom_frac 0.2160160000000000 0.4708770000000000 0.6182820000000000 H
atom_frac 0.2267090000000000 0.2808410000000000 0.6576470000000000 H
atom_frac 0.2797110000000000 0.9036729999999999 0.6730170000000000 H
atom_frac 0.0574070000000000 0.3396300000000000 0.6675850000000000 H
atom_frac 0.3813740000000000 0.0645800000000000 0.6625760000000001 H
atom_frac 0.5509510000000000 0.7262130000000000 0.3383490000000000 C
atom_frac 0.0037260000000000 0.7933220000000000 0.3828530000000000 C
atom_frac 0.5014080000000000 0.2926240000000000 0.3505080000000000 C
atom_frac 0.7207060000000000 0.4534080000000000 0.3346200000000000 C
atom_frac 0.8337010000000000 0.0661570000000000 0.3791240000000000 C
atom_frac 0.3316750000000001 0.5654600000000000 0.3542700000000000 C
atom_frac 0.0554070000000000 0.2281800000000000 0.3949320000000000 C
atom_frac 0.2253910000000000 0.9553350000000000 0.3986450000000000 C
atom_frac 0.5577309999999999 0.7287069999999999 0.4272280000000000 C
atom_frac 0.0105060000000000 0.7958150000000001 0.4717330000000000 C
atom_frac 0.5081890000000000 0.2951180000000000 0.4393880000000000 C
atom_frac 0.7274870000000000 0.4559020000000000 0.4234990000000000 C
atom_frac 0.8404820000000000 0.0686510000000000 0.4680040000000000 C
atom_frac 0.3384560000000000 0.5679530000000000 0.4431490000000000 C
atom_frac 0.0621870000000000 0.2306740000000000 0.4838110000000000 C
atom_frac 0.2321710000000000 0.9578280000000000 0.4875240000000000 C
atom_frac 0.5645120000000000 0.7312010000000001 0.5161240000000000 C
atom_frac 0.0172870000000000 0.7983090000000000 0.5606280000000000 C
atom_frac 0.5149700000000000 0.2976120000000000 0.5282840000000000 C
atom_frac 0.7342680000000000 0.4583960000000000 0.5123950000000000 C
atom_frac 0.8472630000000000 0.0711450000000000 0.5568990000000000 C
atom_frac 0.3452370000000000 0.5704470000000000 0.5320450000000000 C
atom_frac 0.0689690000000000 0.2331680000000000 0.5727070000000000 C
atom_frac 0.2389520000000000 0.9603220000000000 0.5764200000000000 C
atom_frac 0.5712930000000001 0.7336940000000000 0.6050030000000001 C
atom_frac 0.0240680000000000 0.8008029999999999 0.6495080000000000 C
atom_frac 0.5217500000000000 0.3001060000000000 0.6171630000000000 C
atom_frac 0.7410480000000000 0.4608900000000000 0.6012740000000000 C
atom_frac 0.8540430000000000 0.0736380000000000 0.6457790000000000 C
atom_frac 0.3520170000000000 0.5729410000000000 0.6209240000000000 C
atom_frac 0.0757490000000000 0.2356620000000000 0.6615870000000000 C
atom_frac 0.2457320000000000 0.9628160000000000 0.6652990000000000 C
atom_frac 0.5517919999999999 0.5474640000000000 0.3333870000000000 N
atom_frac 0.0022650000000000 0.9717810000000000 0.3778600000000000 N
atom_frac 0.5006380000000000 0.4714240000000000 0.3554860000000000 N
atom_frac 0.3843390000000000 0.7166630000000000 0.3461960000000000 N
atom_frac 0.6679210000000000 0.3021040000000000 0.3426770000000000 N
atom_frac 0.8879120000000000 0.2181420000000000 0.3871330000000000 N
atom_frac 0.3940510000000000 0.4732210000000000 0.3261560000000000 N
atom_frac 0.1594910000000000 0.0459580000000000 0.3705960000000000 N
atom_frac 0.6583700000000000 0.5456370000000000 0.3627170000000000 N
atom_frac 0.2267700000000000 0.8074270000000000 0.3438450000000000 N
atom_frac 0.3281990000000000 0.7120240000000000 0.3882680000000000 N
atom_frac 0.8255100000000000 0.2113600000000000 0.3450280000000000 N
atom_frac 0.0568280000000000 0.0497110000000000 0.3999250000000000 N
atom_frac 0.1712500000000000 0.8034000000000000 0.3906350000000000 N
atom_frac 0.8995710000000000 0.9755239999999999 0.4071730000000000 N
atom_frac 0.7309430000000000 0.3095080000000000 0.3895000000000000 N
atom_frac 0.5585730000000000 0.5499570000000000 0.4222670000000000 N
atom_frac 0.0090450000000000 0.9742749999999999 0.4667390000000000 N
atom_frac 0.5074180000000000 0.4739170000000000 0.4443650000000000 N
atom_frac 0.3911200000000000 0.7191570000000000 0.4350750000000000 N
atom_frac 0.6747010000000000 0.3045980000000000 0.4315570000000000 N
atom_frac 0.8946930000000000 0.2206350000000000 0.4760130000000000 N
atom_frac 0.4008310000000000 0.4757150000000000 0.4150360000000000 N
atom_frac 0.1662710000000000 0.0484510000000000 0.4594760000000000 N
atom_frac 0.6651500000000000 0.5481300000000000 0.4515960000000000 N
atom_frac 0.2335500000000000 0.8099210000000000 0.4327240000000000 N
atom_frac 0.3349790000000000 0.7145170000000000 0.4771480000000000 N
atom_frac 0.8322909999999999 0.2138540000000000 0.4339080000000000 N
atom_frac 0.0636080000000000 0.0522040000000000 0.4888050000000000 N
atom_frac 0.1780300000000000 0.8058940000000000 0.4795150000000000 N
atom_frac 0.9063510000000000 0.9780180000000001 0.4960519999999999 N
atom_frac 0.7377230000000000 0.3120020000000000 0.4783800000000000 N
atom_frac 0.5653540000000000 0.5524520000000001 0.5111630000000000 N
atom_frac 0.0158270000000000 0.9767690000000001 0.5556350000000000 N
atom_frac 0.5142000000000000 0.4764120000000000 0.5332610000000000 N
atom_frac 0.3979009999999999 0.7216510000000000 0.5239710000000000 N
atom_frac 0.6814829999999999 0.3070920000000000 0.5204530000000001 N
atom_frac 0.9014740000000000 0.2231290000000000 0.5649090000000000 N
atom_frac 0.4076120000000000 0.4782090000000000 0.5039320000000000 N
atom_frac 0.1730520000000000 0.0509450000000000 0.5483710000000001 N
atom_frac 0.6719309999999999 0.5506240000000000 0.5404920000000000 N
atom_frac 0.2403320000000000 0.8124150000000000 0.5216200000000000 N
atom_frac 0.3417610000000000 0.7170110000000000 0.5660440000000000 N
atom_frac 0.8390720000000000 0.2163480000000000 0.5228040000000000 N
atom_frac 0.0703900000000000 0.0546980000000000 0.5777010000000000 N
atom_frac 0.1848110000000000 0.8083880000000000 0.5684110000000000 N
atom_frac 0.9131330000000000 0.9805120000000001 0.5849480000000000 N
atom_frac 0.7445050000000000 0.3144960000000000 0.5672759999999999 N
atom_frac 0.5721340000000000 0.5549450000000000 0.6000420000000000 N
atom_frac 0.0226070000000000 0.9792630000000000 0.6445140000000000 N
atom_frac 0.5209800000000000 0.4789050000000000 0.6221400000000001 N
atom_frac 0.4046810000000000 0.7241450000000000 0.6128500000000000 N
atom_frac 0.6882630000000001 0.3095859999999999 0.6093320000000000 N
atom_frac 0.9082540000000000 0.2256230000000000 0.6537880000000000 N
atom_frac 0.4143930000000000 0.4807020000000000 0.5928110000000000 N
atom_frac 0.1798330000000000 0.0534390000000000 0.6372510000000000 N
atom_frac 0.6787119999999999 0.5531180000000000 0.6293710000000000 N
atom_frac 0.2471120000000000 0.8149090000000000 0.6105000000000000 N
atom_frac 0.3485410000000000 0.7195050000000000 0.6549230000000000 N
atom_frac 0.8458520000000000 0.2188420000000000 0.6116830000000000 N
atom_frac 0.0771700000000000 0.0571920000000000 0.6665800000000000 N
atom_frac 0.1915910000000000 0.8108810000000000 0.6572900000000000 N
atom_frac 0.9199130000000000 0.9830050000000000 0.6738270000000000 N
atom_frac 0.7512850000000000 0.3169900000000000 0.6561550000000000 N
atom_frac 0.2624250000000000 0.5663610000000000 0.3243730000000000 O
atom_frac 0.2913050000000000 0.9530080000000000 0.3688130000000000 O
atom_frac 0.7899850000000000 0.4524860000000000 0.3644840000000000 O
atom_frac 0.3972810000000001 0.3194280000000000 0.3224920000000000 O
atom_frac 0.1556400000000000 0.1995140000000000 0.3669160000000000 O
atom_frac 0.6551709999999999 0.6994300000000000 0.3663970000000000 O
atom_frac 0.2624230000000000 0.9362940000000000 0.3373270000000000 O
atom_frac 0.2914860000000000 0.5826020000000000 0.3817990000000000 O
atom_frac 0.7898060000000000 0.0824430000000000 0.3515300000000000 O
atom_frac 0.0621050000000000 0.7541490000000000 0.3488870000000000 O
atom_frac 0.9902069999999999 0.2646690000000000 0.3400020000000000 O
atom_frac 0.5656930000000000 0.2561780000000000 0.3845229999999999 O
atom_frac 0.7677570000000000 0.0684840000000000 0.4089560000000000 O
atom_frac 0.9033620000000000 0.8219470000000000 0.4108530000000000 O
atom_frac 0.7676780000000000 0.4389400000000000 0.3959860000000000 O
atom_frac 0.4934390000000000 0.7653329999999999 0.3932460000000000 O
atom_frac 0.2692050000000000 0.5688540000000000 0.4132520000000000 O
atom_frac 0.2980850000000000 0.9555010000000000 0.4576920000000000 O
atom_frac 0.7967649999999999 0.4549800000000000 0.4533630000000000 O
atom_frac 0.4040610000000000 0.3219220000000000 0.4113720000000000 O
atom_frac 0.1624200000000000 0.2020080000000000 0.4557950000000000 O
atom_frac 0.6619510000000000 0.7019240000000000 0.4552770000000000 O
atom_frac 0.2692030000000000 0.9387880000000000 0.4262070000000000 O
atom_frac 0.2982660000000000 0.5850959999999999 0.4706790000000000 O
atom_frac 0.7965869999999999 0.0849360000000000 0.4404090000000000 O
atom_frac 0.0688850000000000 0.7566420000000000 0.4377670000000000 O
atom_frac 0.9969870000000001 0.2671630000000000 0.4288820000000000 O
atom_frac 0.5724730000000000 0.2586720000000000 0.4734030000000000 O
atom_frac 0.7745370000000000 0.0709780000000000 0.4978360000000000 O
atom_frac 0.9101420000000001 0.8244410000000000 0.4997320000000000 O
atom_frac 0.7744579999999999 0.4414340000000000 0.4848650000000000 O
atom_frac 0.5002190000000000 0.7678270000000001 0.4821250000000000 O
atom_frac 0.2759860000000000 0.5713490000000000 0.5021480000000000 O
atom_frac 0.3048660000000000 0.9579950000000000 0.5465880000000000 O
atom_frac 0.8035460000000000 0.4574740000000000 0.5422590000000000 O
atom_frac 0.4108430000000000 0.3244160000000000 0.5002680000000000 O
atom_frac 0.1692020000000000 0.2045020000000000 0.5446910000000000 O
atom_frac 0.6687320000000001 0.7044180000000000 0.5441720000000000 O
atom_frac 0.2759850000000000 0.9412820000000000 0.5151019999999999 O
atom_frac 0.3050470000000000 0.5875899999999999 0.5595750000000000 O
atom_frac 0.8033680000000000 0.0874310000000000 0.5293050000000000 O
atom_frac 0.0756660000000000 0.7591360000000000 0.5266620000000000 O
atom_frac 0.0037690000000000 0.2696570000000000 0.5177780000000000 O
atom_frac 0.5792550000000000 0.2611660000000000 0.5622980000000000 O
atom_frac 0.7813190000000000 0.0734720000000000 0.5867310000000000 O
atom_frac 0.9169230000000000 0.8269350000000000 0.5886280000000000 O
atom_frac 0.7812390000000000 0.4439280000000000 0.5737610000000000 O
atom_frac 0.5070000000000000 0.7703210000000000 0.5710210000000000 O
atom_frac 0.2827660000000000 0.5738420000000000 0.5910280000000000 O
atom_frac 0.3116470000000000 0.9604890000000000 0.6354680000000000 O
atom_frac 0.8103260000000000 0.4599680000000000 0.6311390000000000 O
atom_frac 0.4176230000000000 0.3269090000000000 0.5891470000000000 O
atom_frac 0.1759820000000000 0.2069960000000000 0.6335710000000000 O
atom_frac 0.6755120000000000 0.7069110000000000 0.6330519999999999 O
atom_frac 0.2827650000000000 0.9437759999999999 0.6039820000000000 O
atom_frac 0.3118270000000000 0.5900830000000000 0.6484540000000000 O
atom_frac 0.8101480000000000 0.0899240000000000 0.6181840000000000 O
atom_frac 0.0824470000000000 0.7616300000000000 0.6155420000000000 O
atom_frac 0.0105490000000000 0.2721510000000000 0.6066570000000000 O
atom_frac 0.5860350000000000 0.2636600000000000 0.6511780000000000 O
atom_frac 0.7880990000000000 0.0759650000000000 0.6756110000000000 O
atom_frac 0.9237040000000000 0.8294290000000000 0.6775080000000000 O
atom_frac 0.7880190000000000 0.4464210000000000 0.6626400000000001 O
atom_frac 0.5137800000000000 0.7728150000000000 0.6598999999999999 O
