#=======================================================
# FHI-aims file: ./geometry.in
# Created using the Atomic Simulation Environment (ASE)
# Tue Feb 11 11:38:02 2020
#=======================================================
lattice_vector 6.5957600000000003 0.0000000000000000 0.0000000000000000 
lattice_vector -1.5450440000000001 7.2328489999999999 0.0000000000000000 
lattice_vector 0.0000000000000000 0.0000000000000000 168.1343329999999980 
atom_frac 0.7022389999999999 0.7714430000000000 0.2524850000000000 H
atom_frac 0.8527860000000000 0.7481320000000000 0.2853400000000000 H
atom_frac 0.3500430000000000 0.2473650000000000 0.2557140000000000 H
atom_frac 0.7536680000000000 0.3937020000000000 0.2411580000000000 H
atom_frac 0.7996330000000000 0.1252500000000000 0.2739900000000000 H
atom_frac 0.2988840000000000 0.6252560000000000 0.2670410000000000 H
atom_frac 0.5320430000000000 0.8299350000000000 0.2451770000000000 H
atom_frac 0.0220780000000000 0.6893629999999999 0.2780080000000000 H
atom_frac 0.5204460000000000 0.1889920000000000 0.2629980000000000 H
atom_frac 0.8566390000000000 0.5554530000000000 0.2488130000000000 H
atom_frac 0.6981000000000001 0.9643940000000000 0.2817040000000000 H
atom_frac 0.1956740000000000 0.4633950000000000 0.2593980000000000 H
atom_frac 0.2063670000000000 0.2733600000000000 0.2884380000000000 H
atom_frac 0.2593690000000000 0.8961910000000000 0.2997760000000000 H
atom_frac 0.0370650000000000 0.3321490000000000 0.2957700000000000 H
atom_frac 0.3610330000000000 0.0570980000000000 0.2920740000000000 H
atom_frac 0.7090190000000000 0.7739360000000000 0.3180520000000000 H
atom_frac 0.8595670000000000 0.7506260000000000 0.3509070000000000 H
atom_frac 0.3568230000000001 0.2498590000000000 0.3212810000000000 H
atom_frac 0.7604480000000000 0.3961950000000000 0.3067250000000000 H
atom_frac 0.8064130000000000 0.1277440000000000 0.3395570000000000 H
atom_frac 0.3056640000000000 0.6277500000000000 0.3326080000000000 H
atom_frac 0.5388230000000001 0.8324279999999999 0.3107440000000000 H
atom_frac 0.0288580000000000 0.6918570000000001 0.3435750000000000 H
atom_frac 0.5272260000000000 0.1914860000000000 0.3285650000000000 H
atom_frac 0.8634190000000002 0.5579470000000000 0.3143800000000000 H
atom_frac 0.7048810000000000 0.9668869999999999 0.3472710000000000 H
atom_frac 0.2024540000000000 0.4658890000000000 0.3249650000000000 H
atom_frac 0.2131470000000000 0.2758540000000000 0.3540050000000000 H
atom_frac 0.2661490000000000 0.8986850000000000 0.3653430000000000 H
atom_frac 0.0438450000000000 0.3346419999999999 0.3613370000000000 H
atom_frac 0.3678130000000000 0.0595920000000000 0.3576410000000000 H
atom_frac 0.7158010000000001 0.7764300000000000 0.3836310000000000 H
atom_frac 0.8663480000000000 0.7531200000000000 0.4164860000000001 H
atom_frac 0.3636040000000000 0.2523530000000000 0.3868600000000000 H
atom_frac 0.7672289999999999 0.3986900000000000 0.3723040000000000 H
atom_frac 0.8131939999999999 0.1302380000000000 0.4051360000000001 H
atom_frac 0.3124460000000000 0.6302440000000000 0.3981870000000000 H
atom_frac 0.5456050000000000 0.8349220000000001 0.3763230000000000 H
atom_frac 0.0356400000000000 0.6943510000000001 0.4091550000000000 H
atom_frac 0.5340080000000000 0.1939800000000000 0.3941440000000000 H
atom_frac 0.8702010000000000 0.5604410000000000 0.3799590000000000 H
atom_frac 0.7116620000000000 0.9693820000000000 0.4128500000000000 H
atom_frac 0.2092350000000000 0.4683830000000000 0.3905440000000000 H
atom_frac 0.2199280000000000 0.2783480000000000 0.4195840000000000 H
atom_frac 0.2729310000000000 0.9011790000000000 0.4309230000000001 H
atom_frac 0.0506270000000000 0.3371370000000000 0.4269160000000001 H
atom_frac 0.3745940000000000 0.0620860000000000 0.4232200000000000 H
atom_frac 0.7225810000000000 0.7789239999999999 0.4491980000000000 H
atom_frac 0.8731279999999999 0.7556140000000000 0.4820530000000000 H
atom_frac 0.3703850000000000 0.2548470000000000 0.4524270000000000 H
atom_frac 0.7740089999999998 0.4011830000000000 0.4378720000000000 H
atom_frac 0.8199740000000000 0.1327320000000000 0.4707030000000000 H
atom_frac 0.3192260000000000 0.6327380000000000 0.4637540000000001 H
atom_frac 0.5523850000000000 0.8374160000000000 0.4418900000000000 H
atom_frac 0.0424200000000000 0.6968450000000000 0.4747220000000000 H
atom_frac 0.5407880000000000 0.1964740000000000 0.4597110000000000 H
atom_frac 0.8769810000000000 0.5629340000000000 0.4455260000000000 H
atom_frac 0.7184420000000000 0.9718750000000000 0.4784170000000000 H
atom_frac 0.2160160000000000 0.4708770000000000 0.4561110000000000 H
atom_frac 0.2267090000000000 0.2808410000000000 0.4851510000000000 H
atom_frac 0.2797110000000000 0.9036729999999999 0.4964900000000000 H
atom_frac 0.0574070000000000 0.3396300000000000 0.4924830000000000 H
atom_frac 0.3813740000000000 0.0645800000000000 0.4887870000000000 H
atom_frac 0.7293620000000000 0.7814179999999999 0.5147770000000000 H
atom_frac 0.8799100000000000 0.7581080000000000 0.5476320000000000 H
atom_frac 0.3771659999999999 0.2573410000000000 0.5180060000000000 H
atom_frac 0.7807910000000000 0.4036770000000000 0.5034510000000000 H
atom_frac 0.8267560000000000 0.1352260000000000 0.5362820000000000 H
atom_frac 0.3260070000000000 0.6352320000000000 0.5293330000000001 H
atom_frac 0.5591660000000001 0.8399100000000000 0.5074689999999999 H
atom_frac 0.0492010000000000 0.6993390000000000 0.5403010000000000 H
atom_frac 0.5475690000000000 0.1989680000000000 0.5252900000000000 H
atom_frac 0.8837619999999999 0.5654280000000000 0.5111050000000000 H
atom_frac 0.7252240000000000 0.9743690000000000 0.5439960000000000 H
atom_frac 0.2227970000000000 0.4733710000000000 0.5216900000000000 H
atom_frac 0.2334900000000000 0.2833350000000000 0.5507300000000001 H
atom_frac 0.2864920000000000 0.9061669999999999 0.5620690000000000 H
atom_frac 0.0641880000000000 0.3421240000000000 0.5580619999999999 H
atom_frac 0.3881560000000000 0.0670740000000000 0.5543660000000000 H
atom_frac 0.7361420000000000 0.7839120000000001 0.5803440000000000 H
atom_frac 0.8866900000000000 0.7606010000000000 0.6132000000000000 H
atom_frac 0.3839460000000000 0.2598350000000000 0.5835740000000000 H
atom_frac 0.7875710000000000 0.4061710000000000 0.5690180000000000 H
atom_frac 0.8335359999999999 0.1377200000000000 0.6018490000000000 H
atom_frac 0.3327870000000000 0.6377250000000000 0.5949000000000000 H
atom_frac 0.5659470000000000 0.8424040000000000 0.5730360000000000 H
atom_frac 0.0559820000000000 0.7018320000000000 0.6058680000000000 H
atom_frac 0.5543490000000000 0.2014620000000000 0.5908570000000000 H
atom_frac 0.8905430000000000 0.5679219999999999 0.5766720000000000 H
atom_frac 0.7320040000000000 0.9768630000000000 0.6095640000000000 H
atom_frac 0.2295770000000000 0.4758650000000000 0.5872570000000000 H
atom_frac 0.2402700000000000 0.2858290000000000 0.6162970000000000 H
atom_frac 0.2932730000000000 0.9086600000000000 0.6276360000000000 H
atom_frac 0.0709680000000000 0.3446180000000000 0.6236290000000000 H
atom_frac 0.3949360000000000 0.0695670000000000 0.6199330000000000 H
atom_frac 0.7429240000000000 0.7864060000000000 0.6459230000000000 H
atom_frac 0.8934710000000000 0.7630950000000000 0.6787790000000000 H
atom_frac 0.3907280000000000 0.2623290000000000 0.6491530000000000 H
atom_frac 0.7943519999999999 0.4086650000000000 0.6345970000000000 H
atom_frac 0.8403170000000000 0.1402140000000000 0.6674280000000000 H
atom_frac 0.3395690000000000 0.6402190000000000 0.6604790000000000 H
atom_frac 0.5727280000000000 0.8448980000000000 0.6386150000000000 H
atom_frac 0.0627630000000000 0.7043270000000000 0.6714470000000000 H
atom_frac 0.5611310000000000 0.2039560000000000 0.6564370000000000 H
atom_frac 0.8973240000000001 0.5704160000000001 0.6422510000000000 H
atom_frac 0.7387850000000000 0.9793570000000000 0.6751430000000000 H
atom_frac 0.2363590000000000 0.4783590000000000 0.6528360000000000 H
atom_frac 0.2470510000000000 0.2883230000000000 0.6818760000000000 H
atom_frac 0.3000540000000000 0.9111540000000000 0.6932150000000000 H
atom_frac 0.0777500000000000 0.3471120000000000 0.6892080000000000 H
atom_frac 0.4017170000000000 0.0720620000000000 0.6855120000000000 H
atom_frac 0.7497040000000000 0.7889000000000000 0.7114900000000000 H
atom_frac 0.9002510000000000 0.7655890000000000 0.7443460000000000 H
atom_frac 0.3975080000000000 0.2648220000000000 0.7147200000000000 H
atom_frac 0.8011330000000000 0.4111590000000000 0.7001640000000000 H
atom_frac 0.8470980000000000 0.1427070000000000 0.7329950000000000 H
atom_frac 0.3463490000000000 0.6427130000000000 0.7260460000000000 H
atom_frac 0.5795080000000000 0.8473920000000000 0.7041830000000000 H
atom_frac 0.0695430000000000 0.7068200000000000 0.7370139999999999 H
atom_frac 0.5679110000000001 0.2064490000000000 0.7220040000000000 H
atom_frac 0.9041040000000000 0.5729100000000000 0.7078190000000000 H
atom_frac 0.7455650000000001 0.9818510000000000 0.7407100000000000 H
atom_frac 0.2431390000000000 0.4808520000000000 0.7184040000000000 H
atom_frac 0.2538320000000000 0.2908170000000000 0.7474430000000000 H
atom_frac 0.3068340000000000 0.9136480000000000 0.7587820000000000 H
atom_frac 0.0845300000000000 0.3496060000000000 0.7547750000000000 H
atom_frac 0.4084980000000000 0.0745550000000000 0.7510790000000001 H
atom_frac 0.5509510000000000 0.7262130000000000 0.2496020000000000 C
atom_frac 0.0037260000000000 0.7933220000000000 0.2824340000000000 C
atom_frac 0.5014080000000000 0.2926240000000000 0.2585730000000000 C
atom_frac 0.7207060000000000 0.4534080000000000 0.2468510000000000 C
atom_frac 0.8337010000000000 0.0661570000000000 0.2796830000000000 C
atom_frac 0.3316750000000001 0.5654600000000000 0.2613470000000000 C
atom_frac 0.0554070000000000 0.2281800000000000 0.2913440000000000 C
atom_frac 0.2253910000000000 0.9553350000000000 0.2940830000000000 C
atom_frac 0.5577309999999999 0.7287069999999999 0.3151690000000000 C
atom_frac 0.0105060000000000 0.7958150000000001 0.3480010000000000 C
atom_frac 0.5081890000000000 0.2951180000000000 0.3241400000000000 C
atom_frac 0.7274870000000000 0.4559020000000000 0.3124190000000000 C
atom_frac 0.8404820000000000 0.0686510000000000 0.3452500000000000 C
atom_frac 0.3384560000000000 0.5679530000000000 0.3269150000000000 C
atom_frac 0.0621870000000000 0.2306740000000000 0.3569110000000000 C
atom_frac 0.2321710000000000 0.9578280000000000 0.3596500000000000 C
atom_frac 0.5645120000000000 0.7312010000000001 0.3807480000000000 C
atom_frac 0.0172870000000000 0.7983090000000000 0.4135800000000001 C
atom_frac 0.5149700000000000 0.2976120000000000 0.3897190000000000 C
atom_frac 0.7342680000000000 0.4583960000000000 0.3779980000000000 C
atom_frac 0.8472630000000000 0.0711450000000000 0.4108289999999999 C
atom_frac 0.3452370000000000 0.5704470000000000 0.3924940000000000 C
atom_frac 0.0689690000000000 0.2331680000000000 0.4224899999999999 C
atom_frac 0.2389520000000000 0.9603220000000000 0.4252290000000000 C
atom_frac 0.5712930000000001 0.7336940000000000 0.4463160000000000 C
atom_frac 0.0240680000000000 0.8008029999999999 0.4791470000000000 C
atom_frac 0.5217500000000000 0.3001060000000000 0.4552860000000000 C
atom_frac 0.7410480000000000 0.4608900000000000 0.4435650000000000 C
atom_frac 0.8540430000000000 0.0736380000000000 0.4763960000000000 C
atom_frac 0.3520170000000000 0.5729410000000000 0.4580610000000000 C
atom_frac 0.0757490000000000 0.2356620000000000 0.4880580000000000 C
atom_frac 0.2457320000000000 0.9628160000000000 0.4907960000000000 C
atom_frac 0.5780740000000000 0.7361880000000000 0.5118950000000000 C
atom_frac 0.0308490000000000 0.8032970000000001 0.5447260000000000 C
atom_frac 0.5285320000000000 0.3025999999999999 0.5208650000000000 C
atom_frac 0.7478300000000000 0.4633840000000000 0.5091440000000000 C
atom_frac 0.8608250000000000 0.0761320000000000 0.5419750000000000 C
atom_frac 0.3587990000000000 0.5754350000000000 0.5236400000000000 C
atom_frac 0.0825300000000000 0.2381560000000000 0.5536370000000000 C
atom_frac 0.2525140000000000 0.9653100000000000 0.5563760000000000 C
atom_frac 0.5848540000000000 0.7386819999999999 0.5774620000000000 C
atom_frac 0.0376290000000000 0.8057910000000000 0.6102930000000000 C
atom_frac 0.5353120000000000 0.3050930000000000 0.5864320000000000 C
atom_frac 0.7546100000000000 0.4658780000000000 0.5747110000000000 C
atom_frac 0.8676050000000001 0.0786260000000000 0.6075420000000000 C
atom_frac 0.3655790000000000 0.5779290000000000 0.5892070000000000 C
atom_frac 0.0893110000000000 0.2406500000000000 0.6192040000000000 C
atom_frac 0.2592940000000000 0.9678040000000000 0.6219430000000000 C
atom_frac 0.5916360000000001 0.7411759999999999 0.6430410000000000 C
atom_frac 0.0444110000000000 0.8082850000000000 0.6758720000000000 C
atom_frac 0.5420929999999999 0.3075869999999999 0.6520110000000000 C
atom_frac 0.7613910000000000 0.4683720000000000 0.6402900000000000 C
atom_frac 0.8743860000000000 0.0811200000000000 0.6731210000000000 C
atom_frac 0.3723600000000001 0.5804230000000000 0.6547860000000000 C
atom_frac 0.0960920000000000 0.2431440000000000 0.6847830000000000 C
atom_frac 0.2660750000000000 0.9702980000000000 0.6875220000000000 C
atom_frac 0.5984159999999999 0.7436700000000001 0.7086080000000000 C
atom_frac 0.0511910000000000 0.8107790000000000 0.7414390000000000 C
atom_frac 0.5488730000000002 0.3100810000000001 0.7175780000000000 C
atom_frac 0.7681709999999999 0.4708650000000000 0.7058570000000000 C
atom_frac 0.8811660000000000 0.0836140000000000 0.7386880000000000 C
atom_frac 0.3791400000000000 0.5829170000000000 0.7203530000000000 C
atom_frac 0.1028720000000000 0.2456370000000000 0.7503500000000000 C
atom_frac 0.2728550000000000 0.9727920000000000 0.7530890000000000 C
atom_frac 0.5517919999999999 0.5474640000000000 0.2459420000000000 N
atom_frac 0.0022650000000000 0.9717810000000000 0.2787500000000000 N
atom_frac 0.5006380000000000 0.4714240000000000 0.2622440000000000 N
atom_frac 0.3843390000000000 0.7166630000000000 0.2553910000000000 N
atom_frac 0.6679210000000000 0.3021040000000000 0.2527960000000000 N
atom_frac 0.8879120000000000 0.2181420000000000 0.2855910000000000 N
atom_frac 0.3940510000000000 0.4732210000000000 0.2406080000000000 N
atom_frac 0.1594910000000000 0.0459580000000000 0.2733920000000000 N
atom_frac 0.6583700000000000 0.5456370000000000 0.2675790000000000 N
atom_frac 0.2267700000000000 0.8074270000000000 0.2536570000000000 N
atom_frac 0.3281990000000000 0.7120240000000000 0.2864280000000000 N
atom_frac 0.8255100000000000 0.2113600000000000 0.2545300000000000 N
atom_frac 0.0568280000000000 0.0497110000000000 0.2950280000000000 N
atom_frac 0.1712500000000000 0.8034000000000000 0.2881750000000000 N
atom_frac 0.8995710000000000 0.9755239999999999 0.3003740000000000 N
atom_frac 0.7309430000000000 0.3095080000000000 0.2873370000000000 N
atom_frac 0.5585730000000000 0.5499570000000000 0.3115100000000000 N
atom_frac 0.0090450000000000 0.9742749999999999 0.3443170000000000 N
atom_frac 0.5074180000000000 0.4739170000000000 0.3278120000000000 N
atom_frac 0.3911200000000000 0.7191570000000000 0.3209580000000000 N
atom_frac 0.6747010000000000 0.3045980000000000 0.3183630000000000 N
atom_frac 0.8946930000000000 0.2206350000000000 0.3511580000000000 N
atom_frac 0.4008310000000000 0.4757150000000000 0.3061750000000000 N
atom_frac 0.1662710000000000 0.0484510000000000 0.3389590000000000 N
atom_frac 0.6651500000000000 0.5481300000000000 0.3331460000000000 N
atom_frac 0.2335500000000000 0.8099210000000000 0.3192240000000000 N
atom_frac 0.3349790000000000 0.7145170000000000 0.3519960000000000 N
atom_frac 0.8322909999999999 0.2138540000000000 0.3200970000000000 N
atom_frac 0.0636080000000000 0.0522040000000000 0.3605950000000000 N
atom_frac 0.1780300000000000 0.8058940000000000 0.3537420000000000 N
atom_frac 0.9063510000000000 0.9780180000000001 0.3659410000000000 N
atom_frac 0.7377230000000000 0.3120020000000000 0.3529050000000000 N
atom_frac 0.5653540000000000 0.5524520000000001 0.3770890000000000 N
atom_frac 0.0158270000000000 0.9767690000000001 0.4098960000000000 N
atom_frac 0.5142000000000000 0.4764120000000000 0.3933910000000000 N
atom_frac 0.3979009999999999 0.7216510000000000 0.3865370000000000 N
atom_frac 0.6814829999999999 0.3070920000000000 0.3839420000000001 N
atom_frac 0.9014740000000000 0.2231290000000000 0.4167370000000000 N
atom_frac 0.4076120000000000 0.4782090000000000 0.3717540000000000 N
atom_frac 0.1730520000000000 0.0509450000000000 0.4045380000000000 N
atom_frac 0.6719309999999999 0.5506240000000000 0.3987250000000000 N
atom_frac 0.2403320000000000 0.8124150000000000 0.3848030000000000 N
atom_frac 0.3417610000000000 0.7170110000000000 0.4175750000000000 N
atom_frac 0.8390720000000000 0.2163480000000000 0.3856760000000000 N
atom_frac 0.0703900000000000 0.0546980000000000 0.4261740000000000 N
atom_frac 0.1848110000000000 0.8083880000000000 0.4193210000000001 N
atom_frac 0.9131330000000000 0.9805120000000001 0.4315210000000000 N
atom_frac 0.7445050000000000 0.3144960000000000 0.4184840000000000 N
atom_frac 0.5721340000000000 0.5549450000000000 0.4426560000000000 N
atom_frac 0.0226070000000000 0.9792630000000000 0.4754630000000000 N
atom_frac 0.5209800000000000 0.4789050000000000 0.4589580000000000 N
atom_frac 0.4046810000000000 0.7241450000000000 0.4521040000000000 N
atom_frac 0.6882630000000001 0.3095859999999999 0.4495090000000000 N
atom_frac 0.9082540000000000 0.2256230000000000 0.4823050000000000 N
atom_frac 0.4143930000000000 0.4807020000000000 0.4373210000000000 N
atom_frac 0.1798330000000000 0.0534390000000000 0.4701050000000001 N
atom_frac 0.6787119999999999 0.5531180000000000 0.4642920000000000 N
atom_frac 0.2471120000000000 0.8149090000000000 0.4503700000000000 N
atom_frac 0.3485410000000000 0.7195050000000000 0.4831420000000000 N
atom_frac 0.8458520000000000 0.2188420000000000 0.4512430000000000 N
atom_frac 0.0771700000000000 0.0571920000000000 0.4917409999999999 N
atom_frac 0.1915910000000000 0.8108810000000000 0.4848880000000000 N
atom_frac 0.9199130000000000 0.9830050000000000 0.4970880000000000 N
atom_frac 0.7512850000000000 0.3169900000000000 0.4840510000000000 N
atom_frac 0.5789160000000000 0.5574389999999999 0.5082350000000000 N
atom_frac 0.0293880000000000 0.9817570000000000 0.5410420000000000 N
atom_frac 0.5277610000000000 0.4813990000000000 0.5245370000000000 N
atom_frac 0.4114630000000000 0.7266390000000000 0.5176840000000000 N
atom_frac 0.6950440000000000 0.3120800000000000 0.5150880000000000 N
atom_frac 0.9150360000000000 0.2281170000000000 0.5478840000000000 N
atom_frac 0.4211740000000000 0.4831960000000000 0.5029000000000000 N
atom_frac 0.1866140000000000 0.0559330000000000 0.5356840000000000 N
atom_frac 0.6854930000000000 0.5556120000000000 0.5298710000000000 N
atom_frac 0.2538930000000000 0.8174030000000000 0.5159490000000000 N
atom_frac 0.3553220000000000 0.7219989999999999 0.5487210000000000 N
atom_frac 0.8526339999999999 0.2213360000000000 0.5168220000000000 N
atom_frac 0.0839510000000000 0.0596860000000000 0.5573200000000000 N
atom_frac 0.1983730000000000 0.8133749999999998 0.5504670000000000 N
atom_frac 0.9266940000000001 0.9854990000000000 0.5626670000000000 N
atom_frac 0.7580660000000000 0.3194839999999999 0.5496300000000000 N
atom_frac 0.5856960000000000 0.5599330000000001 0.5738020000000000 N
atom_frac 0.0361680000000000 0.9842510000000000 0.6066090000000000 N
atom_frac 0.5345410000000000 0.4838930000000000 0.5901040000000000 N
atom_frac 0.4182430000000000 0.7291320000000000 0.5832510000000000 N
atom_frac 0.7018240000000001 0.3145740000000001 0.5806550000000000 N
atom_frac 0.9218160000000001 0.2306110000000000 0.6134510000000000 N
atom_frac 0.4279540000000000 0.4856900000000001 0.5684680000000000 N
atom_frac 0.1933940000000000 0.0584270000000000 0.6012510000000000 N
atom_frac 0.6922730000000000 0.5581060000000000 0.5954380000000000 N
atom_frac 0.2606730000000000 0.8198960000000000 0.5815160000000000 N
atom_frac 0.3621020000000000 0.7244930000000001 0.6142879999999999 N
atom_frac 0.8594140000000000 0.2238300000000000 0.5823890000000000 N
atom_frac 0.0907320000000000 0.0621800000000000 0.6228870000000000 N
atom_frac 0.2051530000000000 0.8158690000000001 0.6160340000000000 N
atom_frac 0.9334740000000000 0.9879930000000000 0.6282340000000000 N
atom_frac 0.7648460000000000 0.3219770000000000 0.6151970000000000 N
atom_frac 0.5924770000000000 0.5624270000000000 0.6393810000000000 N
atom_frac 0.0429500000000000 0.9867450000000000 0.6721880000000000 N
atom_frac 0.5413230000000000 0.4863870000000000 0.6556830000000000 N
atom_frac 0.4250240000000000 0.7316260000000000 0.6488300000000000 N
atom_frac 0.7086059999999998 0.3170680000000000 0.6462340000000000 N
atom_frac 0.9285970000000000 0.2331050000000000 0.6790300000000000 N
atom_frac 0.4347350000000000 0.4881840000000000 0.6340470000000000 N
atom_frac 0.2001760000000000 0.0609210000000000 0.6668300000000000 N
atom_frac 0.6990540000000001 0.5606000000000000 0.6610170000000000 N
atom_frac 0.2674550000000000 0.8223900000000000 0.6470950000000000 N
atom_frac 0.3688840000000000 0.7269870000000000 0.6798670000000000 N
atom_frac 0.8661950000000000 0.2263240000000000 0.6479690000000000 N
atom_frac 0.0975130000000000 0.0646740000000000 0.6884670000000001 N
atom_frac 0.2119340000000000 0.8183630000000000 0.6816130000000000 N
atom_frac 0.9402560000000000 0.9904870000000000 0.6938130000000000 N
atom_frac 0.7716280000000000 0.3244710000000000 0.6807760000000000 N
atom_frac 0.5992570000000000 0.5649210000000000 0.7049480000000000 N
atom_frac 0.0497300000000000 0.9892380000000000 0.7377560000000000 N
atom_frac 0.5481030000000000 0.4888810000000000 0.7212499999999999 N
atom_frac 0.4318040000000000 0.7341200000000000 0.7143969999999999 N
atom_frac 0.7153860000000000 0.3195610000000000 0.7118010000000000 N
atom_frac 0.9353770000000000 0.2355990000000000 0.7445970000000000 N
atom_frac 0.4415160000000000 0.4906780000000000 0.6996140000000000 N
atom_frac 0.2069560000000000 0.0634150000000000 0.7323970000000000 N
atom_frac 0.7058350000000000 0.5630940000000000 0.7265840000000000 N
atom_frac 0.2742350000000000 0.8248840000000000 0.7126630000000000 N
atom_frac 0.3756640000000000 0.7294800000000000 0.7454340000000000 N
atom_frac 0.8729749999999999 0.2288170000000000 0.7135359999999999 N
atom_frac 0.1042930000000000 0.0671680000000000 0.7540340000000000 N
atom_frac 0.2187140000000000 0.8208569999999999 0.7471800000000000 N
atom_frac 0.9470360000000000 0.9929810000000000 0.7593800000000001 N
atom_frac 0.7784080000000000 0.3269650000000000 0.7463430000000000 N
atom_frac 0.2624250000000000 0.5663610000000000 0.2392920000000000 O
atom_frac 0.2913050000000000 0.9530080000000000 0.2720760000000000 O
atom_frac 0.7899850000000000 0.4524860000000000 0.2688830000000000 O
atom_frac 0.3972810000000001 0.3194280000000000 0.2379050000000000 O
atom_frac 0.1556400000000000 0.1995140000000000 0.2706770000000000 O
atom_frac 0.6551709999999999 0.6994300000000000 0.2702940000000000 O
atom_frac 0.2624230000000000 0.9362940000000000 0.2488490000000000 O
atom_frac 0.2914860000000000 0.5826020000000000 0.2816560000000000 O
atom_frac 0.7898060000000000 0.0824430000000000 0.2593260000000000 O
atom_frac 0.0621050000000000 0.7541490000000000 0.2573770000000000 O
atom_frac 0.9902069999999999 0.2646690000000000 0.2508220000000000 O
atom_frac 0.5656930000000000 0.2561780000000000 0.2836660000000000 O
atom_frac 0.7677570000000000 0.0684840000000000 0.3016900000000000 O
atom_frac 0.9033620000000000 0.8219470000000000 0.3030890000000000 O
atom_frac 0.7676780000000000 0.4389400000000000 0.2921220000000000 O
atom_frac 0.4934390000000000 0.7653329999999999 0.2901000000000000 O
atom_frac 0.2692050000000000 0.5688540000000000 0.3048600000000000 O
atom_frac 0.2980850000000000 0.9555010000000000 0.3376430000000000 O
atom_frac 0.7967649999999999 0.4549800000000000 0.3344500000000000 O
atom_frac 0.4040610000000000 0.3219220000000000 0.3034720000000000 O
atom_frac 0.1624200000000000 0.2020080000000000 0.3362440000000000 O
atom_frac 0.6619510000000000 0.7019240000000000 0.3358610000000000 O
atom_frac 0.2692030000000000 0.9387880000000000 0.3144160000000000 O
atom_frac 0.2982660000000000 0.5850959999999999 0.3472230000000000 O
atom_frac 0.7965869999999999 0.0849360000000000 0.3248930000000000 O
atom_frac 0.0688850000000000 0.7566420000000000 0.3229440000000000 O
atom_frac 0.9969870000000001 0.2671630000000000 0.3163890000000000 O
atom_frac 0.5724730000000000 0.2586720000000000 0.3492330000000000 O
atom_frac 0.7745370000000000 0.0709780000000000 0.3672570000000000 O
atom_frac 0.9101420000000001 0.8244410000000000 0.3686560000000000 O
atom_frac 0.7744579999999999 0.4414340000000000 0.3576890000000000 O
atom_frac 0.5002190000000000 0.7678270000000001 0.3556670000000000 O
atom_frac 0.2759860000000000 0.5713490000000000 0.3704390000000000 O
atom_frac 0.3048660000000000 0.9579950000000000 0.4032220000000001 O
atom_frac 0.8035460000000000 0.4574740000000000 0.4000290000000000 O
atom_frac 0.4108430000000000 0.3244160000000000 0.3690510000000000 O
atom_frac 0.1692020000000000 0.2045020000000000 0.4018230000000000 O
atom_frac 0.6687320000000001 0.7044180000000000 0.4014400000000000 O
atom_frac 0.2759850000000000 0.9412820000000000 0.3799950000000000 O
atom_frac 0.3050470000000000 0.5875899999999999 0.4128020000000000 O
atom_frac 0.8033680000000000 0.0874310000000000 0.3904720000000000 O
atom_frac 0.0756660000000000 0.7591360000000000 0.3885230000000000 O
atom_frac 0.0037690000000000 0.2696570000000000 0.3819680000000000 O
atom_frac 0.5792550000000000 0.2611660000000000 0.4148120000000000 O
atom_frac 0.7813190000000000 0.0734720000000000 0.4328360000000000 O
atom_frac 0.9169230000000000 0.8269350000000000 0.4342360000000000 O
atom_frac 0.7812390000000000 0.4439280000000000 0.4232680000000000 O
atom_frac 0.5070000000000000 0.7703210000000000 0.4212470000000000 O
atom_frac 0.2827660000000000 0.5738420000000000 0.4360059999999999 O
atom_frac 0.3116470000000000 0.9604890000000000 0.4687890000000000 O
atom_frac 0.8103260000000000 0.4599680000000000 0.4655960000000000 O
atom_frac 0.4176230000000000 0.3269090000000000 0.4346180000000000 O
atom_frac 0.1759820000000000 0.2069960000000000 0.4673900000000000 O
atom_frac 0.6755120000000000 0.7069110000000000 0.4670070000000000 O
atom_frac 0.2827650000000000 0.9437759999999999 0.4455620000000001 O
atom_frac 0.3118270000000000 0.5900830000000000 0.4783700000000000 O
atom_frac 0.8101480000000000 0.0899240000000000 0.4560390000000000 O
atom_frac 0.0824470000000000 0.7616300000000000 0.4540899999999999 O
atom_frac 0.0105490000000000 0.2721510000000000 0.4475359999999999 O
atom_frac 0.5860350000000000 0.2636600000000000 0.4803790000000000 O
atom_frac 0.7880990000000000 0.0759650000000000 0.4984030000000000 O
atom_frac 0.9237040000000000 0.8294290000000000 0.4998030000000000 O
atom_frac 0.7880190000000000 0.4464210000000000 0.4888350000000000 O
atom_frac 0.5137800000000000 0.7728150000000000 0.4868140000000000 O
atom_frac 0.2895480000000000 0.5763360000000000 0.5015849999999999 O
atom_frac 0.3184280000000000 0.9629830000000000 0.5343680000000000 O
atom_frac 0.8171079999999999 0.4624620000000000 0.5311750000000000 O
atom_frac 0.4244040000000000 0.3294039999999999 0.5001970000000000 O
atom_frac 0.1827630000000000 0.2094900000000000 0.5329690000000000 O
atom_frac 0.6822940000000000 0.7094050000000000 0.5325860000000000 O
atom_frac 0.2895460000000000 0.9462699999999999 0.5111410000000000 O
atom_frac 0.3186090000000000 0.5925780000000000 0.5439490000000000 O
atom_frac 0.8169300000000000 0.0924180000000000 0.5216180000000000 O
atom_frac 0.0892280000000000 0.7641239999999999 0.5196690000000000 O
atom_frac 0.0173300000000000 0.2746450000000000 0.5131150000000000 O
atom_frac 0.5928160000000000 0.2661540000000000 0.5459580000000001 O
atom_frac 0.7948800000000000 0.0784590000000000 0.5639820000000000 O
atom_frac 0.9304849999999999 0.8319230000000000 0.5653820000000001 O
atom_frac 0.7948009999999999 0.4489160000000000 0.5544140000000000 O
atom_frac 0.5205620000000000 0.7753090000000000 0.5523930000000000 O
atom_frac 0.2963280000000000 0.5788300000000000 0.5671520000000000 O
atom_frac 0.3252080000000000 0.9654770000000000 0.5999350000000000 O
atom_frac 0.8238879999999998 0.4649550000000000 0.5967420000000000 O
atom_frac 0.4311850000000000 0.3318970000000000 0.5657640000000000 O
atom_frac 0.1895430000000000 0.2119840000000000 0.5985360000000000 O
atom_frac 0.6890740000000000 0.7118989999999999 0.5981530000000000 O
atom_frac 0.2963260000000000 0.9487630000000000 0.5767080000000000 O
atom_frac 0.3253889999999999 0.5950710000000000 0.6095159999999999 O
atom_frac 0.8237100000000001 0.0949120000000000 0.5871860000000000 O
atom_frac 0.0960080000000000 0.7666180000000001 0.5852360000000000 O
atom_frac 0.0241100000000000 0.2771390000000000 0.5786820000000000 O
atom_frac 0.5995970000000000 0.2686480000000000 0.6115250000000000 O
atom_frac 0.8016600000000002 0.0809530000000000 0.6295490000000000 O
atom_frac 0.9372650000000000 0.8344160000000000 0.6309490000000000 O
atom_frac 0.8015810000000000 0.4514090000000000 0.6199810000000000 O
atom_frac 0.5273420000000000 0.7778020000000000 0.6179600000000000 O
atom_frac 0.3031090000000000 0.5813240000000000 0.6327310000000000 O
atom_frac 0.3319900000000000 0.9679710000000000 0.6655140000000000 O
atom_frac 0.8306690000000000 0.4674500000000000 0.6623210000000000 O
atom_frac 0.4379660000000000 0.3343909999999999 0.6313440000000000 O
atom_frac 0.1963250000000000 0.2144780000000000 0.6641150000000000 O
atom_frac 0.6958550000000000 0.7143929999999999 0.6637320000000000 O
atom_frac 0.3031080000000000 0.9512580000000000 0.6422870000000001 O
atom_frac 0.3321700000000000 0.5975650000000000 0.6750950000000000 O
atom_frac 0.8304910000000000 0.0974060000000000 0.6527650000000000 O
atom_frac 0.1027890000000000 0.7691120000000000 0.6508150000000000 O
atom_frac 0.0308920000000000 0.2796330000000000 0.6442610000000000 O
atom_frac 0.6063780000000000 0.2711420000000000 0.6771040000000000 O