#=======================================================
# FHI-aims file: ./geometry.in
# Created using the Atomic Simulation Environment (ASE)
# Sat Feb 15 07:30:33 2020
#=======================================================
lattice_vector 6.5957600000000003 0.0000000000000000 0.0000000000000000 
lattice_vector -1.5450440000000001 7.2328489999999999 0.0000000000000000 
lattice_vector 0.0000000000000000 0.0000000000000000 201.2105980000000045 
atom_frac 0.7022389999999999 0.7714430000000000 0.2109800000000000 H
atom_frac 0.8527860000000000 0.7481320000000001 0.2384340000000000 H
atom_frac 0.3500430000000000 0.2473650000000000 0.2136780000000000 H
atom_frac 0.7536680000000000 0.3937020000000001 0.2015150000000000 H
atom_frac 0.7996330000000001 0.1252500000000000 0.2289490000000000 H
atom_frac 0.2988840000000000 0.6252560000000001 0.2231430000000000 H
atom_frac 0.5320430000000000 0.8299350000000001 0.2048730000000000 H
atom_frac 0.0220780000000000 0.6893630000000001 0.2323080000000000 H
atom_frac 0.5204460000000000 0.1889920000000000 0.2197650000000000 H
atom_frac 0.8566390000000002 0.5554530000000000 0.2079110000000000 H
atom_frac 0.6981000000000002 0.9643940000000000 0.2353960000000000 H
atom_frac 0.1956740000000000 0.4633950000000001 0.2167560000000000 H
atom_frac 0.2063670000000000 0.2733600000000000 0.2410230000000000 H
atom_frac 0.2593690000000001 0.8961910000000001 0.2504970000000000 H
atom_frac 0.0370650000000000 0.3321490000000000 0.2471490000000000 H
atom_frac 0.3610330000000000 0.0570980000000000 0.2440610000000000 H
atom_frac 0.7090190000000000 0.7739360000000000 0.2657690000000000 H
atom_frac 0.8595670000000002 0.7506260000000001 0.2932230000000000 H
atom_frac 0.3568230000000001 0.2498590000000000 0.2684670000000000 H
atom_frac 0.7604480000000001 0.3961950000000001 0.2563040000000000 H
atom_frac 0.8064130000000002 0.1277440000000000 0.2837380000000000 H
atom_frac 0.3056640000000000 0.6277500000000001 0.2779320000000000 H
atom_frac 0.5388230000000001 0.8324279999999999 0.2596620000000000 H
atom_frac 0.0288580000000000 0.6918570000000002 0.2870960000000000 H
atom_frac 0.5272260000000001 0.1914860000000000 0.2745540000000000 H
atom_frac 0.8634190000000002 0.5579470000000000 0.2627000000000000 H
atom_frac 0.7048810000000000 0.9668870000000001 0.2901850000000000 H
atom_frac 0.2024540000000000 0.4658890000000001 0.2715450000000000 H
atom_frac 0.2131470000000000 0.2758540000000000 0.2958110000000000 H
atom_frac 0.2661490000000000 0.8986850000000001 0.3052860000000000 H
atom_frac 0.0438450000000000 0.3346420000000000 0.3019380000000000 H
atom_frac 0.3678130000000000 0.0595920000000000 0.2988500000000000 H
atom_frac 0.7158010000000001 0.7764300000000000 0.3205670000000000 H
atom_frac 0.8663480000000001 0.7531200000000001 0.3480220000000001 H
atom_frac 0.3636040000000000 0.2523530000000000 0.3232660000000000 H
atom_frac 0.7672290000000000 0.3986900000000000 0.3111030000000000 H
atom_frac 0.8131940000000000 0.1302380000000000 0.3385370000000000 H
atom_frac 0.3124460000000000 0.6302440000000001 0.3327300000000000 H
atom_frac 0.5456050000000000 0.8349220000000001 0.3144610000000000 H
atom_frac 0.0356400000000000 0.6943510000000002 0.3418950000000001 H
atom_frac 0.5340080000000000 0.1939800000000000 0.3293520000000000 H
atom_frac 0.8702010000000000 0.5604410000000000 0.3174990000000000 H
atom_frac 0.7116620000000000 0.9693820000000000 0.3449830000000000 H
atom_frac 0.2092350000000000 0.4683830000000000 0.3263440000000000 H
atom_frac 0.2199280000000000 0.2783480000000000 0.3506100000000000 H
atom_frac 0.2729310000000000 0.9011790000000001 0.3600850000000000 H
atom_frac 0.0506270000000000 0.3371370000000001 0.3567370000000000 H
atom_frac 0.3745940000000000 0.0620860000000000 0.3536480000000001 H
atom_frac 0.7225810000000000 0.7789239999999999 0.3753560000000000 H
atom_frac 0.8731280000000000 0.7556140000000001 0.4028100000000001 H
atom_frac 0.3703850000000000 0.2548470000000000 0.3780550000000000 H
atom_frac 0.7740089999999999 0.4011830000000000 0.3658910000000000 H
atom_frac 0.8199740000000000 0.1327320000000000 0.3933260000000000 H
atom_frac 0.3192260000000001 0.6327380000000001 0.3875190000000000 H
atom_frac 0.5523850000000000 0.8374160000000000 0.3692500000000001 H
atom_frac 0.0424200000000000 0.6968450000000002 0.3966840000000000 H
atom_frac 0.5407880000000000 0.1964740000000000 0.3841410000000000 H
atom_frac 0.8769810000000001 0.5629340000000000 0.3722880000000000 H
atom_frac 0.7184420000000001 0.9718750000000002 0.3997720000000001 H
atom_frac 0.2160160000000000 0.4708770000000000 0.3811330000000000 H
atom_frac 0.2267090000000000 0.2808410000000000 0.4053990000000000 H
atom_frac 0.2797110000000000 0.9036730000000001 0.4148740000000000 H
atom_frac 0.0574070000000000 0.3396300000000000 0.4115250000000000 H
atom_frac 0.3813740000000000 0.0645800000000000 0.4084370000000000 H
atom_frac 0.7293620000000000 0.7814179999999999 0.4301550000000001 H
atom_frac 0.8799100000000000 0.7581080000000000 0.4576090000000000 H
atom_frac 0.3771660000000000 0.2573410000000000 0.4328530000000000 H
atom_frac 0.7807910000000001 0.4036770000000000 0.4206900000000001 H
atom_frac 0.8267560000000002 0.1352260000000000 0.4481250000000000 H
atom_frac 0.3260070000000000 0.6352320000000001 0.4423180000000000 H
atom_frac 0.5591660000000002 0.8399100000000000 0.4240480000000000 H
atom_frac 0.0492010000000000 0.6993390000000000 0.4514830000000000 H
atom_frac 0.5475690000000000 0.1989680000000000 0.4389400000000000 H
atom_frac 0.8837620000000000 0.5654280000000000 0.4270870000000000 H
atom_frac 0.7252240000000000 0.9743690000000002 0.4545710000000000 H
atom_frac 0.2227970000000000 0.4733710000000000 0.4359320000000000 H
atom_frac 0.2334900000000000 0.2833350000000000 0.4601980000000001 H
atom_frac 0.2864920000000001 0.9061670000000001 0.4696720000000000 H
atom_frac 0.0641880000000000 0.3421240000000000 0.4663240000000000 H
atom_frac 0.3881560000000000 0.0670740000000000 0.4632360000000000 H
atom_frac 0.7361420000000000 0.7839120000000001 0.4849440000000000 H
atom_frac 0.8866900000000001 0.7606010000000000 0.5123980000000000 H
atom_frac 0.3839460000000000 0.2598350000000000 0.4876420000000000 H
atom_frac 0.7875710000000001 0.4061710000000000 0.4754790000000000 H
atom_frac 0.8335360000000001 0.1377200000000000 0.5029130000000001 H
atom_frac 0.3327870000000001 0.6377250000000000 0.4971070000000000 H
atom_frac 0.5659470000000000 0.8424040000000000 0.4788370000000001 H
atom_frac 0.0559820000000000 0.7018320000000000 0.5062710000000000 H
atom_frac 0.5543490000000000 0.2014620000000000 0.4937290000000000 H
atom_frac 0.8905430000000000 0.5679220000000000 0.4818750000000001 H
atom_frac 0.7320040000000000 0.9768630000000001 0.5093600000000000 H
atom_frac 0.2295770000000000 0.4758650000000000 0.4907200000000000 H
atom_frac 0.2402700000000000 0.2858290000000000 0.5149860000000001 H
atom_frac 0.2932730000000000 0.9086600000000000 0.5244610000000000 H
atom_frac 0.0709680000000000 0.3446180000000000 0.5211130000000000 H
atom_frac 0.3949360000000001 0.0695670000000000 0.5180250000000000 H
atom_frac 0.7429240000000000 0.7864060000000000 0.5397420000000001 H
atom_frac 0.8934710000000000 0.7630950000000000 0.5671970000000000 H
atom_frac 0.3907280000000000 0.2623290000000000 0.5424410000000000 H
atom_frac 0.7943519999999999 0.4086650000000000 0.5302780000000000 H
atom_frac 0.8403170000000000 0.1402140000000000 0.5577120000000000 H
atom_frac 0.3395690000000001 0.6402190000000000 0.5519050000000000 H
atom_frac 0.5727280000000000 0.8448980000000000 0.5336360000000000 H
atom_frac 0.0627630000000000 0.7043270000000000 0.5610700000000000 H
atom_frac 0.5611310000000000 0.2039560000000000 0.5485270000000000 H
atom_frac 0.8973240000000002 0.5704160000000001 0.5366740000000000 H
atom_frac 0.7387850000000001 0.9793570000000001 0.5641580000000000 H
atom_frac 0.2363590000000000 0.4783590000000000 0.5455190000000000 H
atom_frac 0.2470510000000000 0.2883230000000000 0.5697850000000000 H
atom_frac 0.3000540000000000 0.9111540000000000 0.5792600000000000 H
atom_frac 0.0777500000000000 0.3471120000000000 0.5759120000000000 H
atom_frac 0.4017170000000000 0.0720620000000000 0.5728230000000000 H
atom_frac 0.7497040000000000 0.7889000000000000 0.5945310000000000 H
atom_frac 0.9002510000000000 0.7655890000000000 0.6219850000000000 H
atom_frac 0.3975080000000000 0.2648220000000000 0.5972300000000000 H
atom_frac 0.8011330000000000 0.4111590000000000 0.5850670000000000 H
atom_frac 0.8470980000000001 0.1427070000000000 0.6125010000000000 H
atom_frac 0.3463490000000000 0.6427130000000000 0.6066940000000000 H
atom_frac 0.5795080000000000 0.8473920000000000 0.5884250000000000 H
atom_frac 0.0695430000000000 0.7068200000000000 0.6158590000000000 H
atom_frac 0.5679110000000001 0.2064490000000000 0.6033160000000000 H
atom_frac 0.9041040000000001 0.5729100000000001 0.5914630000000000 H
atom_frac 0.7455650000000001 0.9818510000000001 0.6189470000000000 H
atom_frac 0.2431390000000000 0.4808520000000000 0.6003080000000000 H
atom_frac 0.2538320000000000 0.2908170000000000 0.6245740000000000 H
atom_frac 0.3068340000000000 0.9136480000000000 0.6340490000000000 H
atom_frac 0.0845300000000000 0.3496060000000000 0.6307010000000000 H
atom_frac 0.4084980000000000 0.0745550000000000 0.6276119999999999 H
atom_frac 0.7564850000000001 0.7913940000000000 0.6493300000000001 H
atom_frac 0.9070330000000001 0.7680830000000000 0.6767840000000001 H
atom_frac 0.4042890000000000 0.2673160000000000 0.6520280000000002 H
atom_frac 0.8079140000000001 0.4136530000000000 0.6398650000000000 H
atom_frac 0.8538790000000001 0.1452020000000000 0.6673000000000001 H
atom_frac 0.3531300000000001 0.6452070000000000 0.6614930000000000 H
atom_frac 0.5862900000000000 0.8498860000000000 0.6432230000000000 H
atom_frac 0.0763250000000000 0.7093140000000000 0.6706580000000001 H
atom_frac 0.5746920000000000 0.2089430000000000 0.6581150000000000 H
atom_frac 0.9108860000000000 0.5754040000000001 0.6462620000000000 H
atom_frac 0.7523470000000000 0.9843450000000001 0.6737460000000001 H
atom_frac 0.2499200000000000 0.4833470000000000 0.6551070000000000 H
atom_frac 0.2606130000000000 0.2933110000000000 0.6793730000000001 H
atom_frac 0.3136160000000000 0.9161420000000000 0.6888470000000001 H
atom_frac 0.0913110000000000 0.3521000000000000 0.6854990000000000 H
atom_frac 0.4152790000000001 0.0770490000000000 0.6824110000000000 H
atom_frac 0.7632650000000001 0.7938870000000001 0.7041190000000002 H
atom_frac 0.9138130000000001 0.7705770000000000 0.7315730000000000 H
atom_frac 0.4110690000000001 0.2698100000000000 0.7068170000000001 H
atom_frac 0.8146940000000000 0.4161470000000000 0.6946540000000000 H
atom_frac 0.8606590000000000 0.1476950000000000 0.7220880000000000 H
atom_frac 0.3599110000000000 0.6477010000000000 0.7162820000000000 H
atom_frac 0.5930700000000001 0.8523790000000000 0.6980120000000000 H
atom_frac 0.0831050000000000 0.7118080000000000 0.7254460000000000 H
atom_frac 0.5814730000000000 0.2114370000000000 0.7129040000000000 H
atom_frac 0.9176660000000002 0.5778980000000001 0.7010500000000001 H
atom_frac 0.7591270000000001 0.9868390000000001 0.7285350000000000 H
atom_frac 0.2567000000000000 0.4858400000000000 0.7098950000000001 H
atom_frac 0.2673930000000000 0.2958050000000000 0.7341620000000001 H
atom_frac 0.3203960000000001 0.9186360000000000 0.7436360000000000 H
atom_frac 0.0980910000000000 0.3545940000000000 0.7402879999999999 H
atom_frac 0.4220590000000000 0.0795430000000000 0.7372000000000000 H
atom_frac 0.7700470000000000 0.7963810000000001 0.7589170000000001 H
atom_frac 0.9205940000000000 0.7730710000000001 0.7863720000000000 H
atom_frac 0.4178510000000000 0.2723040000000000 0.7616160000000000 H
atom_frac 0.8214760000000001 0.4186410000000000 0.7494530000000000 H
atom_frac 0.8674410000000001 0.1501890000000000 0.7768870000000001 H
atom_frac 0.3666920000000000 0.6501950000000000 0.7710800000000000 H
atom_frac 0.5998510000000000 0.8548730000000000 0.7528110000000000 H
atom_frac 0.0898860000000000 0.7143020000000001 0.7802450000000000 H
atom_frac 0.5882540000000001 0.2139310000000000 0.7677020000000000 H
atom_frac 0.9244470000000001 0.5803920000000001 0.7558490000000000 H
atom_frac 0.7659080000000000 0.9893330000000000 0.7833340000000000 H
atom_frac 0.2634820000000000 0.4883340000000000 0.7646940000000000 H
atom_frac 0.2741750000000000 0.2982990000000000 0.7889600000000000 H
atom_frac 0.3271770000000000 0.9211300000000000 0.7984350000000000 H
atom_frac 0.1048730000000000 0.3570880000000000 0.7950870000000000 H
atom_frac 0.4288410000000000 0.0820370000000000 0.7919990000000000 H
atom_frac 0.5509510000000000 0.7262130000000000 0.2085710000000000 C
atom_frac 0.0037260000000000 0.7933220000000000 0.2360050000000000 C
atom_frac 0.5014080000000000 0.2926240000000000 0.2160670000000000 C
atom_frac 0.7207060000000001 0.4534080000000000 0.2062720000000000 C
atom_frac 0.8337010000000000 0.0661570000000000 0.2337070000000000 C
atom_frac 0.3316750000000001 0.5654600000000001 0.2183860000000000 C
atom_frac 0.0554070000000000 0.2281800000000000 0.2434510000000000 C
atom_frac 0.2253910000000001 0.9553350000000002 0.2457400000000000 C
atom_frac 0.5577310000000000 0.7287070000000000 0.2633600000000000 C
atom_frac 0.0105060000000000 0.7958150000000001 0.2907940000000000 C
atom_frac 0.5081890000000000 0.2951180000000000 0.2708560000000000 C
atom_frac 0.7274870000000000 0.4559020000000000 0.2610610000000000 C
atom_frac 0.8404820000000001 0.0686510000000000 0.2884960000000000 C
atom_frac 0.3384560000000000 0.5679530000000000 0.2731740000000000 C
atom_frac 0.0621870000000000 0.2306740000000000 0.2982400000000000 C
atom_frac 0.2321710000000000 0.9578280000000000 0.3005290000000000 C
atom_frac 0.5645120000000000 0.7312010000000001 0.3181590000000000 C
atom_frac 0.0172870000000000 0.7983090000000000 0.3455930000000000 C
atom_frac 0.5149700000000000 0.2976120000000000 0.3256540000000000 C
atom_frac 0.7342680000000000 0.4583960000000000 0.3158600000000000 C
atom_frac 0.8472630000000000 0.0711450000000000 0.3432940000000000 C
atom_frac 0.3452370000000000 0.5704470000000000 0.3279730000000001 C
atom_frac 0.0689690000000000 0.2331680000000000 0.3530390000000000 C
atom_frac 0.2389520000000000 0.9603220000000000 0.3553270000000001 C
atom_frac 0.5712930000000001 0.7336940000000000 0.3729470000000000 C
atom_frac 0.0240680000000000 0.8008030000000000 0.4003820000000001 C
atom_frac 0.5217500000000000 0.3001060000000000 0.3804430000000000 C
atom_frac 0.7410480000000002 0.4608900000000000 0.3706490000000001 C
atom_frac 0.8540430000000000 0.0736380000000000 0.3980830000000001 C
atom_frac 0.3520170000000001 0.5729410000000000 0.3827620000000000 C
atom_frac 0.0757490000000000 0.2356620000000000 0.4078280000000000 C
atom_frac 0.2457320000000000 0.9628160000000000 0.4101160000000000 C
atom_frac 0.5780740000000000 0.7361880000000000 0.4277460000000000 C
atom_frac 0.0308490000000000 0.8032970000000001 0.4551810000000000 C
atom_frac 0.5285320000000000 0.3026000000000000 0.4352420000000000 C
atom_frac 0.7478300000000000 0.4633840000000000 0.4254470000000000 C
atom_frac 0.8608250000000001 0.0761320000000000 0.4528820000000000 C
atom_frac 0.3587990000000000 0.5754350000000000 0.4375610000000000 C
atom_frac 0.0825300000000000 0.2381560000000000 0.4626260000000000 C
atom_frac 0.2525140000000000 0.9653100000000000 0.4649150000000000 C
atom_frac 0.5848540000000000 0.7386819999999999 0.4825350000000000 C
atom_frac 0.0376290000000000 0.8057910000000001 0.5099690000000000 C
atom_frac 0.5353120000000000 0.3050930000000000 0.4900310000000000 C
atom_frac 0.7546100000000000 0.4658780000000000 0.4802360000000000 C
atom_frac 0.8676050000000001 0.0786260000000000 0.5076710000000000 C
atom_frac 0.3655790000000000 0.5779290000000000 0.4923490000000000 C
atom_frac 0.0893110000000000 0.2406500000000000 0.5174150000000000 C
atom_frac 0.2592940000000000 0.9678040000000000 0.5197040000000001 C
atom_frac 0.5916360000000001 0.7411759999999999 0.5373340000000000 C
atom_frac 0.0444110000000000 0.8082850000000001 0.5647680000000000 C
atom_frac 0.5420930000000000 0.3075870000000000 0.5448290000000000 C
atom_frac 0.7613910000000002 0.4683720000000000 0.5350350000000000 C
atom_frac 0.8743860000000000 0.0811200000000000 0.5624690000000000 C
atom_frac 0.3723600000000001 0.5804230000000000 0.5471480000000000 C
atom_frac 0.0960920000000000 0.2431440000000000 0.5722140000000000 C
atom_frac 0.2660750000000000 0.9702980000000000 0.5745030000000000 C
atom_frac 0.5984159999999999 0.7436700000000001 0.5921220000000000 C
atom_frac 0.0511910000000000 0.8107790000000001 0.6195570000000000 C
atom_frac 0.5488730000000002 0.3100810000000001 0.5996180000000000 C
atom_frac 0.7681710000000000 0.4708650000000000 0.5898240000000000 C
atom_frac 0.8811660000000000 0.0836140000000000 0.6172580000000000 C
atom_frac 0.3791400000000000 0.5829170000000000 0.6019370000000001 C
atom_frac 0.1028720000000000 0.2456370000000000 0.6270030000000000 C
atom_frac 0.2728550000000000 0.9727920000000000 0.6292910000000000 C
atom_frac 0.6051970000000000 0.7461640000000000 0.6469210000000000 C
atom_frac 0.0579720000000000 0.8132730000000001 0.6743560000000000 C
atom_frac 0.5556550000000001 0.3125750000000000 0.6544170000000001 C
atom_frac 0.7749530000000000 0.4733590000000000 0.6446229999999999 C
atom_frac 0.8879480000000000 0.0861080000000000 0.6720570000000000 C
atom_frac 0.3859220000000000 0.5854110000000000 0.6567360000000000 C
atom_frac 0.1096540000000000 0.2481320000000000 0.6818010000000001 C
atom_frac 0.2796370000000000 0.9752860000000000 0.6840900000000000 C
atom_frac 0.6119770000000000 0.7486580000000000 0.7017100000000001 C
atom_frac 0.0647520000000000 0.8157660000000000 0.7291440000000001 C
atom_frac 0.5624350000000000 0.3150690000000000 0.7092060000000000 C
atom_frac 0.7817330000000001 0.4758530000000000 0.6994110000000000 C
atom_frac 0.8947280000000000 0.0886020000000000 0.7268460000000001 C
atom_frac 0.3927020000000001 0.5879040000000000 0.7115240000000000 C
atom_frac 0.1164340000000000 0.2506250000000000 0.7365900000000001 C
atom_frac 0.2864170000000000 0.9777790000000000 0.7388790000000000 C
atom_frac 0.6187589999999999 0.7511520000000000 0.7565090000000001 C
atom_frac 0.0715340000000000 0.8182600000000000 0.7839429999999999 C
atom_frac 0.5692160000000001 0.3175630000000000 0.7640050000000000 C
atom_frac 0.7885140000000000 0.4783470000000001 0.7542100000000000 C
atom_frac 0.9015090000000001 0.0910960000000000 0.7816440000000000 C
atom_frac 0.3994830000000000 0.5903980000000000 0.7663230000000000 C
atom_frac 0.1232150000000000 0.2531190000000000 0.7913890000000000 C
atom_frac 0.2931980000000001 0.9802740000000001 0.7936780000000000 C
atom_frac 0.5517919999999999 0.5474640000000000 0.2055130000000000 N
atom_frac 0.0022650000000000 0.9717810000000000 0.2329270000000000 N
atom_frac 0.5006380000000000 0.4714240000000000 0.2191350000000000 N
atom_frac 0.3843390000000000 0.7166630000000000 0.2134080000000000 N
atom_frac 0.6679210000000000 0.3021040000000000 0.2112400000000000 N
atom_frac 0.8879120000000000 0.2181420000000000 0.2386440000000000 N
atom_frac 0.3940510000000000 0.4732210000000000 0.2010550000000000 N
atom_frac 0.1594910000000000 0.0459580000000000 0.2284500000000000 N
atom_frac 0.6583700000000000 0.5456370000000000 0.2235930000000000 N
atom_frac 0.2267700000000000 0.8074270000000000 0.2119590000000000 N
atom_frac 0.3281990000000000 0.7120240000000001 0.2393440000000000 N
atom_frac 0.8255100000000001 0.2113600000000000 0.2126890000000000 N
atom_frac 0.0568280000000000 0.0497110000000000 0.2465290000000000 N
atom_frac 0.1712500000000000 0.8034000000000000 0.2408030000000000 N
atom_frac 0.8995710000000001 0.9755239999999999 0.2509970000000000 N
atom_frac 0.7309430000000000 0.3095080000000000 0.2401030000000000 N
atom_frac 0.5585730000000000 0.5499570000000000 0.2603020000000000 N
atom_frac 0.0090450000000000 0.9742750000000000 0.2877160000000000 N
atom_frac 0.5074180000000000 0.4739170000000000 0.2739240000000000 N
atom_frac 0.3911200000000000 0.7191570000000000 0.2681970000000000 N
atom_frac 0.6747010000000000 0.3045980000000000 0.2660280000000000 N
atom_frac 0.8946930000000001 0.2206350000000000 0.2934330000000000 N
atom_frac 0.4008310000000000 0.4757150000000000 0.2558440000000000 N
atom_frac 0.1662710000000000 0.0484510000000000 0.2832390000000000 N
atom_frac 0.6651500000000000 0.5481300000000000 0.2783810000000000 N
atom_frac 0.2335500000000000 0.8099210000000000 0.2667480000000000 N
atom_frac 0.3349790000000000 0.7145170000000000 0.2941320000000000 N
atom_frac 0.8322910000000000 0.2138540000000000 0.2674780000000000 N
atom_frac 0.0636080000000000 0.0522040000000000 0.3013180000000000 N
atom_frac 0.1780300000000000 0.8058940000000000 0.2955920000000000 N
atom_frac 0.9063510000000001 0.9780180000000001 0.3057860000000000 N
atom_frac 0.7377230000000001 0.3120020000000000 0.2948920000000000 N
atom_frac 0.5653540000000000 0.5524520000000001 0.3151000000000000 N
atom_frac 0.0158270000000000 0.9767690000000001 0.3425150000000000 N
atom_frac 0.5142000000000000 0.4764120000000000 0.3287230000000000 N
atom_frac 0.3979010000000000 0.7216510000000000 0.3229960000000000 N
atom_frac 0.6814830000000001 0.3070920000000000 0.3208270000000000 N
atom_frac 0.9014740000000000 0.2231290000000000 0.3482320000000000 N
atom_frac 0.4076120000000000 0.4782090000000000 0.3106430000000000 N
atom_frac 0.1730520000000000 0.0509450000000000 0.3380370000000000 N
atom_frac 0.6719310000000001 0.5506240000000000 0.3331800000000000 N
atom_frac 0.2403320000000000 0.8124150000000000 0.3215470000000000 N
atom_frac 0.3417610000000000 0.7170110000000000 0.3489310000000000 N
atom_frac 0.8390720000000000 0.2163480000000000 0.3222760000000000 N
atom_frac 0.0703900000000000 0.0546980000000000 0.3561170000000000 N
atom_frac 0.1848110000000000 0.8083880000000000 0.3503900000000000 N
atom_frac 0.9131330000000000 0.9805120000000001 0.3605840000000000 N
atom_frac 0.7445050000000000 0.3144960000000000 0.3496910000000000 N
atom_frac 0.5721340000000001 0.5549450000000000 0.3698890000000000 N
atom_frac 0.0226070000000000 0.9792630000000001 0.3973040000000000 N
atom_frac 0.5209800000000001 0.4789050000000000 0.3835110000000000 N
atom_frac 0.4046810000000000 0.7241450000000000 0.3777850000000000 N
atom_frac 0.6882630000000001 0.3095860000000000 0.3756160000000000 N
atom_frac 0.9082540000000000 0.2256230000000000 0.4030200000000000 N
atom_frac 0.4143930000000001 0.4807020000000000 0.3654320000000000 N
atom_frac 0.1798330000000000 0.0534390000000000 0.3928260000000000 N
atom_frac 0.6787120000000000 0.5531180000000000 0.3879690000000000 N
atom_frac 0.2471120000000000 0.8149090000000000 0.3763350000000000 N
atom_frac 0.3485410000000000 0.7195050000000000 0.4037200000000000 N
atom_frac 0.8458520000000002 0.2188420000000000 0.3770650000000000 N
atom_frac 0.0771700000000000 0.0571920000000000 0.4109060000000000 N
atom_frac 0.1915910000000000 0.8108810000000000 0.4051790000000000 N
atom_frac 0.9199130000000000 0.9830050000000001 0.4153730000000000 N
atom_frac 0.7512850000000000 0.3169900000000000 0.4044790000000000 N
atom_frac 0.5789160000000000 0.5574390000000000 0.4246880000000001 N
atom_frac 0.0293880000000000 0.9817570000000001 0.4521020000000001 N
atom_frac 0.5277610000000000 0.4813990000000000 0.4383100000000000 N
atom_frac 0.4114630000000000 0.7266390000000000 0.4325830000000001 N
atom_frac 0.6950440000000000 0.3120800000000000 0.4304150000000000 N
atom_frac 0.9150360000000001 0.2281170000000000 0.4578190000000000 N
atom_frac 0.4211740000000000 0.4831960000000000 0.4202300000000000 N
atom_frac 0.1866140000000000 0.0559330000000000 0.4476250000000000 N
atom_frac 0.6854930000000000 0.5556120000000000 0.4427680000000001 N
atom_frac 0.2538930000000000 0.8174030000000000 0.4311340000000000 N
atom_frac 0.3553220000000000 0.7219989999999999 0.4585190000000001 N
atom_frac 0.8526340000000000 0.2213360000000000 0.4318640000000000 N
atom_frac 0.0839510000000000 0.0596860000000000 0.4657050000000000 N
atom_frac 0.1983730000000000 0.8133750000000000 0.4599780000000000 N
atom_frac 0.9266940000000001 0.9854990000000001 0.4701720000000000 N
atom_frac 0.7580660000000001 0.3194840000000000 0.4592780000000000 N
atom_frac 0.5856960000000001 0.5599330000000001 0.4794770000000000 N
atom_frac 0.0361680000000000 0.9842510000000001 0.5068910000000000 N
atom_frac 0.5345410000000000 0.4838930000000000 0.4930990000000001 N
atom_frac 0.4182430000000000 0.7291320000000000 0.4873720000000000 N
atom_frac 0.7018240000000002 0.3145740000000001 0.4852030000000000 N
atom_frac 0.9218160000000001 0.2306110000000000 0.5126080000000000 N
atom_frac 0.4279540000000001 0.4856900000000001 0.4750190000000000 N
atom_frac 0.1933940000000000 0.0584270000000000 0.5024140000000000 N
atom_frac 0.6922730000000001 0.5581060000000000 0.4975560000000001 N
atom_frac 0.2606730000000000 0.8198960000000000 0.4859230000000000 N
atom_frac 0.3621020000000000 0.7244930000000001 0.5133070000000000 N
atom_frac 0.8594140000000000 0.2238300000000000 0.4866530000000000 N
atom_frac 0.0907320000000000 0.0621800000000000 0.5204930000000000 N
atom_frac 0.2051530000000000 0.8158690000000001 0.5147670000000000 N
atom_frac 0.9334740000000000 0.9879930000000001 0.5249610000000000 N
atom_frac 0.7648460000000001 0.3219770000000000 0.5140670000000001 N
atom_frac 0.5924770000000001 0.5624270000000001 0.5342750000000001 N
atom_frac 0.0429500000000000 0.9867450000000001 0.5616900000000000 N
atom_frac 0.5413230000000000 0.4863870000000000 0.5478980000000000 N
atom_frac 0.4250240000000000 0.7316260000000000 0.5421710000000000 N
atom_frac 0.7086060000000000 0.3170680000000001 0.5400020000000000 N
atom_frac 0.9285970000000000 0.2331050000000000 0.5674070000000000 N
atom_frac 0.4347350000000000 0.4881840000000001 0.5298180000000000 N
atom_frac 0.2001760000000000 0.0609210000000000 0.5572120000000000 N
atom_frac 0.6990540000000001 0.5606000000000000 0.5523550000000000 N
atom_frac 0.2674550000000000 0.8223900000000000 0.5407220000000000 N
atom_frac 0.3688840000000000 0.7269870000000000 0.5681060000000000 N
atom_frac 0.8661950000000002 0.2263240000000000 0.5414510000000000 N
atom_frac 0.0975130000000000 0.0646740000000000 0.5752920000000000 N
atom_frac 0.2119340000000001 0.8183630000000001 0.5695650000000000 N
atom_frac 0.9402560000000001 0.9904870000000001 0.5797600000000001 N
atom_frac 0.7716280000000000 0.3244710000000000 0.5688660000000000 N
atom_frac 0.5992570000000000 0.5649210000000001 0.5890640000000000 N
atom_frac 0.0497300000000000 0.9892380000000000 0.6164790000000000 N
atom_frac 0.5481030000000000 0.4888810000000000 0.6026860000000001 N
atom_frac 0.4318040000000001 0.7341200000000000 0.5969600000000000 N
atom_frac 0.7153860000000000 0.3195610000000000 0.5947910000000000 N
atom_frac 0.9353770000000001 0.2355990000000000 0.6221950000000001 N
atom_frac 0.4415160000000000 0.4906780000000001 0.5846070000000000 N
atom_frac 0.2069560000000000 0.0634150000000000 0.6120010000000000 N
atom_frac 0.7058350000000000 0.5630940000000000 0.6071440000000000 N
atom_frac 0.2742350000000000 0.8248840000000000 0.5955110000000000 N
atom_frac 0.3756640000000000 0.7294800000000000 0.6228950000000000 N
atom_frac 0.8729750000000001 0.2288170000000000 0.5962400000000000 N
atom_frac 0.1042930000000000 0.0671680000000000 0.6300810000000000 N
atom_frac 0.2187140000000000 0.8208570000000001 0.6243540000000000 N
atom_frac 0.9470360000000001 0.9929810000000001 0.6345480000000000 N
atom_frac 0.7784080000000000 0.3269650000000001 0.6236550000000000 N
atom_frac 0.6060390000000000 0.5674150000000001 0.6438630000000001 N
atom_frac 0.0565110000000000 0.9917330000000001 0.6712770000000001 N
atom_frac 0.5548840000000000 0.4913750000000000 0.6574850000000001 N
atom_frac 0.4385860000000000 0.7366140000000000 0.6517580000000001 N
atom_frac 0.7221670000000001 0.3220550000000000 0.6495900000000001 N
atom_frac 0.9421590000000000 0.2380930000000000 0.6769940000000000 N
atom_frac 0.4482970000000001 0.4931720000000001 0.6394060000000000 N
atom_frac 0.2137370000000000 0.0659090000000000 0.6667999999999999 N
atom_frac 0.7126160000000001 0.5655880000000000 0.6619430000000001 N
atom_frac 0.2810160000000000 0.8273779999999999 0.6503090000000000 N
atom_frac 0.3824450000000000 0.7319750000000000 0.6776940000000001 N
atom_frac 0.8797570000000000 0.2313110000000000 0.6510390000000001 N
atom_frac 0.1110750000000000 0.0696620000000000 0.6848800000000002 N
atom_frac 0.2254960000000000 0.8233510000000002 0.6791530000000000 N
atom_frac 0.9538170000000000 0.9954750000000000 0.6893470000000000 N
atom_frac 0.7851890000000001 0.3294590000000001 0.6784530000000000 N
atom_frac 0.6128190000000000 0.5699080000000000 0.6986520000000002 N
atom_frac 0.0632910000000000 0.9942260000000001 0.7260660000000000 N
atom_frac 0.5616650000000000 0.4938680000000000 0.7122740000000001 N
atom_frac 0.4453660000000000 0.7391080000000000 0.7065470000000001 N
atom_frac 0.7289480000000000 0.3245490000000000 0.7043790000000001 N
atom_frac 0.9489390000000000 0.2405860000000000 0.7317830000000001 N
atom_frac 0.4550770000000000 0.4956660000000000 0.6941940000000000 N
atom_frac 0.2205170000000000 0.0684020000000000 0.7215890000000000 N
atom_frac 0.7193960000000001 0.5680810000000001 0.7167310000000000 N
atom_frac 0.2877970000000001 0.8298720000000001 0.7050980000000001 N
atom_frac 0.3892250000000000 0.7344680000000000 0.7324820000000000 N
atom_frac 0.8865370000000000 0.2338050000000000 0.7058280000000000 N
atom_frac 0.1178550000000000 0.0721550000000000 0.7396680000000001 N
atom_frac 0.2322760000000000 0.8258450000000002 0.7339420000000000 N
atom_frac 0.9605980000000000 0.9979690000000000 0.7441360000000001 N
atom_frac 0.7919690000000000 0.3319530000000000 0.7332419999999999 N
atom_frac 0.6196000000000000 0.5724030000000000 0.7534510000000000 N
atom_frac 0.0700730000000000 0.9967200000000001 0.7808650000000000 N
atom_frac 0.5684460000000000 0.4963630000000001 0.7670730000000000 N
atom_frac 0.4521470000000000 0.7416020000000000 0.7613460000000000 N