#=======================================================
# FHI-aims file: ./geometry.in
# Created using the Atomic Simulation Environment (ASE)
# Tue Feb 11 11:37:51 2020
#=======================================================
lattice_vector 6.5957600000000003 0.0000000000000000 0.0000000000000000 
lattice_vector -1.5450440000000001 7.2328489999999999 0.0000000000000000 
lattice_vector 0.0000000000000000 0.0000000000000000 157.1102510000000052 
atom_frac 0.7022389999999999 0.7714430000000000 0.2702010000000000 H
atom_frac 0.8527860000000000 0.7481320000000000 0.3053620000000000 H
atom_frac 0.3500430000000000 0.2473650000000000 0.2736570000000000 H
atom_frac 0.7536680000000000 0.3937020000000000 0.2580800000000000 H
atom_frac 0.7996330000000000 0.1252500000000000 0.2932150000000000 H
atom_frac 0.2988840000000000 0.6252560000000000 0.2857780000000000 H
atom_frac 0.5320430000000000 0.8299350000000000 0.2623800000000000 H
atom_frac 0.0220780000000000 0.6893629999999999 0.2975160000000000 H
atom_frac 0.5204460000000000 0.1889920000000000 0.2814520000000000 H
atom_frac 0.8566390000000000 0.5554530000000000 0.2662720000000000 H
atom_frac 0.6981000000000001 0.9643940000000000 0.3014710000000000 H
atom_frac 0.1956740000000000 0.4633950000000000 0.2775990000000000 H
atom_frac 0.2063670000000000 0.2733600000000000 0.3086770000000000 H
atom_frac 0.2593690000000000 0.8961910000000000 0.3208110000000000 H
atom_frac 0.0370650000000000 0.3321490000000000 0.3165230000000000 H
atom_frac 0.3610330000000000 0.0570980000000000 0.3125680000000000 H
atom_frac 0.7090190000000000 0.7739360000000000 0.3403690000000000 H
atom_frac 0.8595670000000000 0.7506260000000000 0.3755300000000000 H
atom_frac 0.3568230000000001 0.2498590000000000 0.3438250000000000 H
atom_frac 0.7604480000000000 0.3961950000000000 0.3282480000000000 H
atom_frac 0.8064130000000000 0.1277440000000000 0.3633830000000000 H
atom_frac 0.3056640000000000 0.6277500000000000 0.3559460000000000 H
atom_frac 0.5388230000000001 0.8324279999999999 0.3325480000000000 H
atom_frac 0.0288580000000000 0.6918570000000001 0.3676830000000000 H
atom_frac 0.5272260000000000 0.1914860000000000 0.3516200000000000 H
atom_frac 0.8634190000000002 0.5579470000000000 0.3364390000000000 H
atom_frac 0.7048810000000000 0.9668869999999999 0.3716380000000000 H
atom_frac 0.2024540000000000 0.4658890000000000 0.3477670000000000 H
atom_frac 0.2131470000000000 0.2758540000000000 0.3788450000000000 H
atom_frac 0.2661490000000000 0.8986850000000000 0.3909790000000000 H
atom_frac 0.0438450000000000 0.3346419999999999 0.3866910000000000 H
atom_frac 0.3678130000000000 0.0595920000000000 0.3827360000000000 H
atom_frac 0.7158010000000001 0.7764300000000000 0.4105490000000001 H
atom_frac 0.8663480000000000 0.7531200000000000 0.4457099999999999 H
atom_frac 0.3636040000000000 0.2523530000000000 0.4140050000000000 H
atom_frac 0.7672289999999999 0.3986900000000000 0.3984280000000000 H
atom_frac 0.8131939999999999 0.1302380000000000 0.4335630000000000 H
atom_frac 0.3124460000000000 0.6302440000000000 0.4261270000000000 H
atom_frac 0.5456050000000000 0.8349220000000001 0.4027290000000000 H
atom_frac 0.0356400000000000 0.6943510000000001 0.4378640000000000 H
atom_frac 0.5340080000000000 0.1939800000000000 0.4218000000000000 H
atom_frac 0.8702010000000000 0.5604410000000000 0.4066200000000000 H
atom_frac 0.7116620000000000 0.9693820000000000 0.4418190000000000 H
atom_frac 0.2092350000000000 0.4683830000000000 0.4179480000000000 H
atom_frac 0.2199280000000000 0.2783480000000000 0.4490250000000000 H
atom_frac 0.2729310000000000 0.9011790000000000 0.4611590000000000 H
atom_frac 0.0506270000000000 0.3371370000000000 0.4568720000000000 H
atom_frac 0.3745940000000000 0.0620860000000000 0.4529160000000000 H
atom_frac 0.7225810000000000 0.7789239999999999 0.4807170000000000 H
atom_frac 0.8731279999999999 0.7556140000000000 0.5158779999999999 H
atom_frac 0.3703850000000000 0.2548470000000000 0.4841730000000000 H
atom_frac 0.7740089999999998 0.4011830000000000 0.4685960000000000 H
atom_frac 0.8199740000000000 0.1327320000000000 0.5037310000000000 H
atom_frac 0.3192260000000000 0.6327380000000000 0.4962940000000000 H
atom_frac 0.5523850000000000 0.8374160000000000 0.4728970000000000 H
atom_frac 0.0424200000000000 0.6968450000000000 0.5080320000000000 H
atom_frac 0.5407880000000000 0.1964740000000000 0.4919680000000000 H
atom_frac 0.8769810000000000 0.5629340000000000 0.4767879999999999 H
atom_frac 0.7184420000000000 0.9718750000000000 0.5119870000000000 H
atom_frac 0.2160160000000000 0.4708770000000000 0.4881160000000000 H
atom_frac 0.2267090000000000 0.2808410000000000 0.5191930000000000 H
atom_frac 0.2797110000000000 0.9036729999999999 0.5313270000000000 H
atom_frac 0.0574070000000000 0.3396300000000000 0.5270390000000000 H
atom_frac 0.3813740000000000 0.0645800000000000 0.5230840000000000 H
atom_frac 0.7293620000000000 0.7814179999999999 0.5508980000000000 H
atom_frac 0.8799100000000000 0.7581080000000000 0.5860590000000000 H
atom_frac 0.3771659999999999 0.2573410000000000 0.5543540000000000 H
atom_frac 0.7807910000000000 0.4036770000000000 0.5387770000000000 H
atom_frac 0.8267560000000000 0.1352260000000000 0.5739120000000000 H
atom_frac 0.3260070000000000 0.6352320000000000 0.5664750000000000 H
atom_frac 0.5591660000000001 0.8399100000000000 0.5430770000000000 H
atom_frac 0.0492010000000000 0.6993390000000000 0.5782119999999999 H
atom_frac 0.5475690000000000 0.1989680000000000 0.5621490000000000 H
atom_frac 0.8837619999999999 0.5654280000000000 0.5469680000000000 H
atom_frac 0.7252240000000000 0.9743690000000000 0.5821670000000000 H
atom_frac 0.2227970000000000 0.4733710000000000 0.5582960000000000 H
atom_frac 0.2334900000000000 0.2833350000000000 0.5893740000000000 H
atom_frac 0.2864920000000000 0.9061669999999999 0.6015080000000000 H
atom_frac 0.0641880000000000 0.3421240000000000 0.5972200000000000 H
atom_frac 0.3881560000000000 0.0670740000000000 0.5932650000000000 H
atom_frac 0.7361420000000000 0.7839120000000001 0.6210660000000000 H
atom_frac 0.8866900000000000 0.7606010000000000 0.6562260000000000 H
atom_frac 0.3839460000000000 0.2598350000000000 0.6245220000000000 H
atom_frac 0.7875710000000000 0.4061710000000000 0.6089440000000000 H
atom_frac 0.8335359999999999 0.1377200000000000 0.6440800000000000 H
atom_frac 0.3327870000000000 0.6377250000000000 0.6366430000000000 H
atom_frac 0.5659470000000000 0.8424040000000000 0.6132450000000000 H
atom_frac 0.0559820000000000 0.7018320000000000 0.6483800000000000 H
atom_frac 0.5543490000000000 0.2014620000000000 0.6323170000000000 H
atom_frac 0.8905430000000000 0.5679219999999999 0.6171360000000000 H
atom_frac 0.7320040000000000 0.9768630000000000 0.6523350000000000 H
atom_frac 0.2295770000000000 0.4758650000000000 0.6284640000000000 H
atom_frac 0.2402700000000000 0.2858290000000000 0.6595420000000000 H
atom_frac 0.2932730000000000 0.9086600000000000 0.6716760000000001 H
atom_frac 0.0709680000000000 0.3446180000000000 0.6673880000000000 H
atom_frac 0.3949360000000000 0.0695670000000000 0.6634330000000001 H
atom_frac 0.7429240000000000 0.7864060000000000 0.6912460000000000 H
atom_frac 0.8934710000000000 0.7630950000000000 0.7264070000000000 H
atom_frac 0.3907280000000000 0.2623290000000000 0.6947020000000000 H
atom_frac 0.7943519999999999 0.4086650000000000 0.6791250000000000 H
atom_frac 0.8403170000000000 0.1402140000000000 0.7142600000000000 H
atom_frac 0.3395690000000000 0.6402190000000000 0.7068240000000000 H
atom_frac 0.5727280000000000 0.8448980000000000 0.6834260000000000 H
atom_frac 0.0627630000000000 0.7043270000000000 0.7185610000000000 H
atom_frac 0.5611310000000000 0.2039560000000000 0.7024970000000000 H
atom_frac 0.8973240000000001 0.5704160000000001 0.6873170000000000 H
atom_frac 0.7387850000000000 0.9793570000000000 0.7225160000000000 H
atom_frac 0.2363590000000000 0.4783590000000000 0.6986450000000000 H
atom_frac 0.2470510000000000 0.2883230000000000 0.7297220000000000 H
atom_frac 0.3000540000000000 0.9111540000000000 0.7418560000000000 H
atom_frac 0.0777500000000000 0.3471120000000000 0.7375680000000000 H
atom_frac 0.4017170000000000 0.0720620000000000 0.7336130000000000 H
atom_frac 0.5509510000000000 0.7262130000000000 0.2671160000000000 C
atom_frac 0.0037260000000000 0.7933220000000000 0.3022510000000000 C
atom_frac 0.5014080000000000 0.2926240000000000 0.2767160000000000 C
atom_frac 0.7207060000000000 0.4534080000000000 0.2641720000000000 C
atom_frac 0.8337010000000000 0.0661570000000000 0.2993080000000000 C
atom_frac 0.3316750000000001 0.5654600000000000 0.2796860000000000 C
atom_frac 0.0554070000000000 0.2281800000000000 0.3117870000000000 C
atom_frac 0.2253910000000000 0.9553350000000000 0.3147180000000000 C
atom_frac 0.5577309999999999 0.7287069999999999 0.3372840000000000 C
atom_frac 0.0105060000000000 0.7958150000000001 0.3724190000000000 C
atom_frac 0.5081890000000000 0.2951180000000000 0.3468840000000000 C
atom_frac 0.7274870000000000 0.4559020000000000 0.3343400000000000 C
atom_frac 0.8404820000000000 0.0686510000000000 0.3694750000000000 C
atom_frac 0.3384560000000000 0.5679530000000000 0.3498530000000000 C
atom_frac 0.0621870000000000 0.2306740000000000 0.3819550000000000 C
atom_frac 0.2321710000000000 0.9578280000000000 0.3848860000000000 C
atom_frac 0.5645120000000000 0.7312010000000001 0.4074650000000000 C
atom_frac 0.0172870000000000 0.7983090000000000 0.4426000000000000 C
atom_frac 0.5149700000000000 0.2976120000000000 0.4170650000000000 C
atom_frac 0.7342680000000000 0.4583960000000000 0.4045210000000000 C
atom_frac 0.8472630000000000 0.0711450000000000 0.4396560000000000 C
atom_frac 0.3452370000000000 0.5704470000000000 0.4200340000000000 C
atom_frac 0.0689690000000000 0.2331680000000000 0.4521360000000000 C
atom_frac 0.2389520000000000 0.9603220000000000 0.4550669999999999 C
atom_frac 0.5712930000000001 0.7336940000000000 0.4776330000000000 C
atom_frac 0.0240680000000000 0.8008029999999999 0.5127680000000000 C
atom_frac 0.5217500000000000 0.3001060000000000 0.4872320000000000 C
atom_frac 0.7410480000000000 0.4608900000000000 0.4746890000000000 C
atom_frac 0.8540430000000000 0.0736380000000000 0.5098240000000001 C
atom_frac 0.3520170000000000 0.5729410000000000 0.4902020000000001 C
atom_frac 0.0757490000000000 0.2356620000000000 0.5223030000000000 C
atom_frac 0.2457320000000000 0.9628160000000000 0.5252350000000000 C
atom_frac 0.5780740000000000 0.7361880000000000 0.5478130000000000 C
atom_frac 0.0308490000000000 0.8032970000000001 0.5829480000000000 C
atom_frac 0.5285320000000000 0.3025999999999999 0.5574130000000000 C
atom_frac 0.7478300000000000 0.4633840000000000 0.5448690000000000 C
atom_frac 0.8608250000000000 0.0761320000000000 0.5800040000000000 C
atom_frac 0.3587990000000000 0.5754350000000000 0.5603820000000000 C
atom_frac 0.0825300000000000 0.2381560000000000 0.5924840000000000 C
atom_frac 0.2525140000000000 0.9653100000000000 0.5954150000000000 C
atom_frac 0.5848540000000000 0.7386819999999999 0.6179810000000000 C
atom_frac 0.0376290000000000 0.8057910000000000 0.6531160000000000 C
atom_frac 0.5353120000000000 0.3050930000000000 0.6275810000000001 C
atom_frac 0.7546100000000000 0.4658780000000000 0.6150369999999999 C
atom_frac 0.8676050000000001 0.0786260000000000 0.6501720000000000 C
atom_frac 0.3655790000000000 0.5779290000000000 0.6305500000000001 C
atom_frac 0.0893110000000000 0.2406500000000000 0.6626520000000000 C
atom_frac 0.2592940000000000 0.9678040000000000 0.6655830000000000 C
atom_frac 0.5916360000000001 0.7411759999999999 0.6881620000000001 C
atom_frac 0.0444110000000000 0.8082850000000000 0.7232970000000000 C
atom_frac 0.5420929999999999 0.3075869999999999 0.6977610000000000 C
atom_frac 0.7613910000000000 0.4683720000000000 0.6852180000000000 C
atom_frac 0.8743860000000000 0.0811200000000000 0.7203530000000000 C
atom_frac 0.3723600000000001 0.5804230000000000 0.7007310000000000 C
atom_frac 0.0960920000000000 0.2431440000000000 0.7328320000000000 C
atom_frac 0.2660750000000000 0.9702980000000000 0.7357640000000000 C
atom_frac 0.5517919999999999 0.5474640000000000 0.2632000000000000 N
atom_frac 0.0022650000000000 0.9717810000000000 0.2983090000000000 N
atom_frac 0.5006380000000000 0.4714240000000000 0.2806460000000000 N
atom_frac 0.3843390000000000 0.7166630000000000 0.2733110000000000 N
atom_frac 0.6679210000000000 0.3021040000000000 0.2705340000000000 N
atom_frac 0.8879120000000000 0.2181420000000000 0.3056310000000000 N
atom_frac 0.3940510000000000 0.4732210000000000 0.2574910000000000 N
atom_frac 0.1594910000000000 0.0459580000000000 0.2925750000000000 N
atom_frac 0.6583700000000000 0.5456370000000000 0.2863540000000000 N
atom_frac 0.2267700000000000 0.8074270000000000 0.2714550000000000 N
atom_frac 0.3281990000000000 0.7120240000000000 0.3065270000000000 N
atom_frac 0.8255100000000000 0.2113600000000000 0.2723900000000000 N
atom_frac 0.0568280000000000 0.0497110000000000 0.3157300000000000 N
atom_frac 0.1712500000000000 0.8034000000000000 0.3083950000000000 N
atom_frac 0.8995710000000000 0.9755239999999999 0.3214510000000000 N
atom_frac 0.7309430000000000 0.3095080000000000 0.3074990000000000 N
atom_frac 0.5585730000000000 0.5499570000000000 0.3333670000000000 N
atom_frac 0.0090450000000000 0.9742749999999999 0.3684770000000000 N
atom_frac 0.5074180000000000 0.4739170000000000 0.3508130000000000 N
atom_frac 0.3911200000000000 0.7191570000000000 0.3434790000000000 N
atom_frac 0.6747010000000000 0.3045980000000000 0.3407020000000000 N
atom_frac 0.8946930000000000 0.2206350000000000 0.3757980000000000 N
atom_frac 0.4008310000000000 0.4757150000000000 0.3276590000000000 N
atom_frac 0.1662710000000000 0.0484510000000000 0.3627430000000000 N
atom_frac 0.6651500000000000 0.5481300000000000 0.3565220000000000 N
atom_frac 0.2335500000000000 0.8099210000000000 0.3416230000000000 N
atom_frac 0.3349790000000000 0.7145170000000000 0.3766940000000000 N
atom_frac 0.8322909999999999 0.2138540000000000 0.3425580000000000 N
atom_frac 0.0636080000000000 0.0522040000000000 0.3858970000000000 N
atom_frac 0.1780300000000000 0.8058940000000000 0.3785630000000000 N
atom_frac 0.9063510000000000 0.9780180000000001 0.3916190000000000 N
atom_frac 0.7377230000000000 0.3120020000000000 0.3776670000000000 N
atom_frac 0.5653540000000000 0.5524520000000001 0.4035480000000000 N
atom_frac 0.0158270000000000 0.9767690000000001 0.4386579999999999 N
atom_frac 0.5142000000000000 0.4764120000000000 0.4209940000000000 N
atom_frac 0.3979009999999999 0.7216510000000000 0.4136600000000000 N
atom_frac 0.6814829999999999 0.3070920000000000 0.4108820000000000 N
atom_frac 0.9014740000000000 0.2231290000000000 0.4459790000000000 N
atom_frac 0.4076120000000000 0.4782090000000000 0.3978390000000000 N
atom_frac 0.1730520000000000 0.0509450000000000 0.4329229999999999 N
atom_frac 0.6719309999999999 0.5506240000000000 0.4267030000000000 N
atom_frac 0.2403320000000000 0.8124150000000000 0.4118040000000000 N
atom_frac 0.3417610000000000 0.7170110000000000 0.4468750000000000 N
atom_frac 0.8390720000000000 0.2163480000000000 0.4127380000000000 N
atom_frac 0.0703900000000000 0.0546980000000000 0.4560780000000000 N
atom_frac 0.1848110000000000 0.8083880000000000 0.4487439999999999 N
atom_frac 0.9131330000000000 0.9805120000000001 0.4617990000000000 N
atom_frac 0.7445050000000000 0.3144960000000000 0.4478480000000000 N
atom_frac 0.5721340000000000 0.5549450000000000 0.4737160000000000 N
atom_frac 0.0226070000000000 0.9792630000000000 0.5088250000000000 N
atom_frac 0.5209800000000000 0.4789050000000000 0.4911619999999999 N
atom_frac 0.4046810000000000 0.7241450000000000 0.4838280000000000 N
atom_frac 0.6882630000000001 0.3095859999999999 0.4810500000000000 N
atom_frac 0.9082540000000000 0.2256230000000000 0.5161470000000000 N
atom_frac 0.4143930000000000 0.4807020000000000 0.4680070000000001 N
atom_frac 0.1798330000000000 0.0534390000000000 0.5030910000000000 N
atom_frac 0.6787119999999999 0.5531180000000000 0.4968700000000000 N
atom_frac 0.2471120000000000 0.8149090000000000 0.4819720000000000 N
atom_frac 0.3485410000000000 0.7195050000000000 0.5170430000000000 N
atom_frac 0.8458520000000000 0.2188420000000000 0.4829060000000000 N
atom_frac 0.0771700000000000 0.0571920000000000 0.5262460000000000 N
atom_frac 0.1915910000000000 0.8108810000000000 0.5189120000000000 N
atom_frac 0.9199130000000000 0.9830050000000000 0.5319670000000000 N
atom_frac 0.7512850000000000 0.3169900000000000 0.5180160000000000 N
atom_frac 0.5789160000000000 0.5574389999999999 0.5438960000000000 N
atom_frac 0.0293880000000000 0.9817570000000000 0.5790060000000000 N
atom_frac 0.5277610000000000 0.4813990000000000 0.5613420000000000 N
atom_frac 0.4114630000000000 0.7266390000000000 0.5540079999999999 N
atom_frac 0.6950440000000000 0.3120800000000000 0.5512310000000000 N
atom_frac 0.9150360000000000 0.2281170000000000 0.5863270000000000 N
atom_frac 0.4211740000000000 0.4831960000000000 0.5381880000000000 N
atom_frac 0.1866140000000000 0.0559330000000000 0.5732720000000000 N
atom_frac 0.6854930000000000 0.5556120000000000 0.5670510000000000 N
atom_frac 0.2538930000000000 0.8174030000000000 0.5521520000000000 N
atom_frac 0.3553220000000000 0.7219989999999999 0.5872230000000001 N
atom_frac 0.8526339999999999 0.2213360000000000 0.5530870000000000 N
atom_frac 0.0839510000000000 0.0596860000000000 0.5964260000000000 N
atom_frac 0.1983730000000000 0.8133749999999998 0.5890919999999999 N
atom_frac 0.9266940000000001 0.9854990000000000 0.6021480000000000 N
atom_frac 0.7580660000000000 0.3194839999999999 0.5881960000000001 N
atom_frac 0.5856960000000000 0.5599330000000001 0.6140640000000001 N
atom_frac 0.0361680000000000 0.9842510000000000 0.6491740000000000 N
atom_frac 0.5345410000000000 0.4838930000000000 0.6315100000000000 N
atom_frac 0.4182430000000000 0.7291320000000000 0.6241760000000000 N
atom_frac 0.7018240000000001 0.3145740000000001 0.6213980000000000 N
atom_frac 0.9218160000000001 0.2306110000000000 0.6564950000000001 N
atom_frac 0.4279540000000000 0.4856900000000001 0.6083560000000000 N
atom_frac 0.1933940000000000 0.0584270000000000 0.6434400000000000 N
atom_frac 0.6922730000000000 0.5581060000000000 0.6372190000000000 N
atom_frac 0.2606730000000000 0.8198960000000000 0.6223200000000000 N
atom_frac 0.3621020000000000 0.7244930000000001 0.6573909999999999 N
atom_frac 0.8594140000000000 0.2238300000000000 0.6232540000000000 N
atom_frac 0.0907320000000000 0.0621800000000000 0.6665940000000000 N
atom_frac 0.2051530000000000 0.8158690000000001 0.6592600000000000 N
atom_frac 0.9334740000000000 0.9879930000000000 0.6723160000000000 N
atom_frac 0.7648460000000000 0.3219770000000000 0.6583639999999999 N
atom_frac 0.5924770000000000 0.5624270000000000 0.6842450000000000 N
atom_frac 0.0429500000000000 0.9867450000000000 0.7193540000000000 N
atom_frac 0.5413230000000000 0.4863870000000000 0.7016910000000000 N
atom_frac 0.4250240000000000 0.7316260000000000 0.6943570000000000 N
atom_frac 0.7086059999999998 0.3170680000000000 0.6915790000000001 N
atom_frac 0.9285970000000000 0.2331050000000000 0.7266760000000000 N
atom_frac 0.4347350000000000 0.4881840000000000 0.6785360000000000 N
atom_frac 0.2001760000000000 0.0609210000000000 0.7136200000000000 N
atom_frac 0.6990540000000001 0.5606000000000000 0.7073990000000000 N
atom_frac 0.2674550000000000 0.8223900000000000 0.6925010000000000 N
atom_frac 0.3688840000000000 0.7269870000000000 0.7275720000000000 N
atom_frac 0.8661950000000000 0.2263240000000000 0.6934350000000000 N
atom_frac 0.0975130000000000 0.0646740000000000 0.7367750000000000 N
atom_frac 0.2119340000000000 0.8183630000000000 0.7294410000000000 N
atom_frac 0.9402560000000000 0.9904870000000000 0.7424960000000000 N
atom_frac 0.7716280000000000 0.3244710000000000 0.7285450000000000 N
atom_frac 0.2624250000000000 0.5663610000000000 0.2560830000000000 O
atom_frac 0.2913050000000000 0.9530080000000000 0.2911670000000000 O
atom_frac 0.7899850000000000 0.4524860000000000 0.2877490000000000 O
atom_frac 0.3972810000000001 0.3194280000000000 0.2545980000000000 O
atom_frac 0.1556400000000000 0.1995140000000000 0.2896690000000000 O
atom_frac 0.6551709999999999 0.6994300000000000 0.2892600000000000 O
atom_frac 0.2624230000000000 0.9362940000000000 0.2663100000000000 O
atom_frac 0.2914860000000000 0.5826020000000000 0.3014190000000000 O
atom_frac 0.7898060000000000 0.0824430000000000 0.2775220000000000 O
atom_frac 0.0621050000000000 0.7541490000000000 0.2754360000000000 O
atom_frac 0.9902069999999999 0.2646690000000000 0.2684220000000000 O
atom_frac 0.5656930000000000 0.2561780000000000 0.3035700000000000 O
atom_frac 0.7677570000000000 0.0684840000000000 0.3228590000000000 O
atom_frac 0.9033620000000000 0.8219470000000000 0.3243560000000000 O
atom_frac 0.7676780000000000 0.4389400000000000 0.3126190000000000 O
atom_frac 0.4934390000000000 0.7653329999999999 0.3104560000000000 O
atom_frac 0.2692050000000000 0.5688540000000000 0.3262510000000000 O
atom_frac 0.2980850000000000 0.9555010000000000 0.3613350000000000 O
atom_frac 0.7967649999999999 0.4549800000000000 0.3579170000000000 O
atom_frac 0.4040610000000000 0.3219220000000000 0.3247660000000000 O
atom_frac 0.1624200000000000 0.2020080000000000 0.3598370000000000 O
atom_frac 0.6619510000000000 0.7019240000000000 0.3594280000000000 O
atom_frac 0.2692030000000000 0.9387880000000000 0.3364780000000000 O
atom_frac 0.2982660000000000 0.5850959999999999 0.3715870000000000 O
atom_frac 0.7965869999999999 0.0849360000000000 0.3476900000000000 O
atom_frac 0.0688850000000000 0.7566420000000000 0.3456040000000000 O
atom_frac 0.9969870000000001 0.2671630000000000 0.3385900000000000 O
atom_frac 0.5724730000000000 0.2586720000000000 0.3737380000000000 O
atom_frac 0.7745370000000000 0.0709780000000000 0.3930270000000000 O
atom_frac 0.9101420000000001 0.8244410000000000 0.3945240000000000 O
atom_frac 0.7744579999999999 0.4414340000000000 0.3827870000000000 O
atom_frac 0.5002190000000000 0.7678270000000001 0.3806240000000000 O
atom_frac 0.2759860000000000 0.5713490000000000 0.3964310000000000 O
atom_frac 0.3048660000000000 0.9579950000000000 0.4315150000000000 O
atom_frac 0.8035460000000000 0.4574740000000000 0.4280980000000000 O
atom_frac 0.4108430000000000 0.3244160000000000 0.3949470000000000 O
atom_frac 0.1692020000000000 0.2045020000000000 0.4300180000000000 O
atom_frac 0.6687320000000001 0.7044180000000000 0.4296080000000000 O
atom_frac 0.2759850000000000 0.9412820000000000 0.4066580000000000 O
atom_frac 0.3050470000000000 0.5875899999999999 0.4417680000000000 O
atom_frac 0.8033680000000000 0.0874310000000000 0.4178710000000000 O
atom_frac 0.0756660000000000 0.7591360000000000 0.4157850000000000 O
atom_frac 0.0037690000000000 0.2696570000000000 0.4087700000000000 O
atom_frac 0.5792550000000000 0.2611660000000000 0.4439180000000000 O
atom_frac 0.7813190000000000 0.0734720000000000 0.4632070000000000 O
atom_frac 0.9169230000000000 0.8269350000000000 0.4647050000000000 O
atom_frac 0.7812390000000000 0.4439280000000000 0.4529680000000000 O
atom_frac 0.5070000000000000 0.7703210000000000 0.4508040000000000 O
atom_frac 0.2827660000000000 0.5738420000000000 0.4665989999999999 O
atom_frac 0.3116470000000000 0.9604890000000000 0.5016830000000000 O
atom_frac 0.8103260000000000 0.4599680000000000 0.4982660000000000 O
atom_frac 0.4176230000000000 0.3269090000000000 0.4651140000000000 O
atom_frac 0.1759820000000000 0.2069960000000000 0.5001860000000000 O
atom_frac 0.6755120000000000 0.7069110000000000 0.4997760000000000 O
atom_frac 0.2827650000000000 0.9437759999999999 0.4768260000000000 O
atom_frac 0.3118270000000000 0.5900830000000000 0.5119359999999999 O
atom_frac 0.8101480000000000 0.0899240000000000 0.4880390000000000 O
atom_frac 0.0824470000000000 0.7616300000000000 0.4859520000000000 O
atom_frac 0.0105490000000000 0.2721510000000000 0.4789379999999999 O
atom_frac 0.5860350000000000 0.2636600000000000 0.5140860000000000 O
atom_frac 0.7880990000000000 0.0759650000000000 0.5333750000000000 O
atom_frac 0.9237040000000000 0.8294290000000000 0.5348730000000000 O
atom_frac 0.7880190000000000 0.4464210000000000 0.5231350000000000 O
atom_frac 0.5137800000000000 0.7728150000000000 0.5209720000000000 O
atom_frac 0.2895480000000000 0.5763360000000000 0.5367800000000000 O
atom_frac 0.3184280000000000 0.9629830000000000 0.5718640000000000 O
atom_frac 0.8171079999999999 0.4624620000000000 0.5684460000000000 O
atom_frac 0.4244040000000000 0.3294039999999999 0.5352950000000000 O
atom_frac 0.1827630000000000 0.2094900000000000 0.5703660000000000 O
atom_frac 0.6822940000000000 0.7094050000000000 0.5699570000000000 O
atom_frac 0.2895460000000000 0.9462699999999999 0.5470070000000000 O
atom_frac 0.3186090000000000 0.5925780000000000 0.5821160000000000 O
atom_frac 0.8169300000000000 0.0924180000000000 0.5582190000000000 O
atom_frac 0.0892280000000000 0.7641239999999999 0.5561330000000000 O
atom_frac 0.0173300000000000 0.2746450000000000 0.5491190000000000 O
atom_frac 0.5928160000000000 0.2661540000000000 0.5842670000000000 O
atom_frac 0.7948800000000000 0.0784590000000000 0.6035560000000000 O
atom_frac 0.9304849999999999 0.8319230000000000 0.6050530000000000 O
atom_frac 0.7948009999999999 0.4489160000000000 0.5933160000000000 O
atom_frac 0.5205620000000000 0.7753090000000000 0.5911530000000000 O
atom_frac 0.2963280000000000 0.5788300000000000 0.6069480000000000 O
atom_frac 0.3252080000000000 0.9654770000000000 0.6420320000000000 O
atom_frac 0.8238879999999998 0.4649550000000000 0.6386140000000000 O
atom_frac 0.4311850000000000 0.3318970000000000 0.6054630000000000 O
atom_frac 0.1895430000000000 0.2119840000000000 0.6405340000000000 O
atom_frac 0.6890740000000000 0.7118989999999999 0.6401240000000000 O
atom_frac 0.2963260000000000 0.9487630000000000 0.6171750000000000 O
atom_frac 0.3253889999999999 0.5950710000000000 0.6522840000000000 O
atom_frac 0.8237100000000001 0.0949120000000000 0.6283870000000000 O
atom_frac 0.0960080000000000 0.7666180000000001 0.6263010000000000 O
atom_frac 0.0241100000000000 0.2771390000000000 0.6192870000000000 O
atom_frac 0.5995970000000000 0.2686480000000000 0.6544340000000000 O
atom_frac 0.8016600000000002 0.0809530000000000 0.6737240000000000 O
atom_frac 0.9372650000000000 0.8344160000000000 0.6752210000000000 O
atom_frac 0.8015810000000000 0.4514090000000000 0.6634840000000000 O
atom_frac 0.5273420000000000 0.7778020000000000 0.6613210000000000 O
atom_frac 0.3031090000000000 0.5813240000000000 0.6771280000000000 O
atom_frac 0.3319900000000000 0.9679710000000000 0.7122120000000000 O
atom_frac 0.8306690000000000 0.4674500000000000 0.7087950000000000 O
atom_frac 0.4379660000000000 0.3343909999999999 0.6756440000000000 O
atom_frac 0.1963250000000000 0.2144780000000000 0.7107150000000000 O
atom_frac 0.6958550000000000 0.7143929999999999 0.7103050000000000 O
atom_frac 0.3031080000000000 0.9512580000000000 0.6873550000000000 O
atom_frac 0.3321700000000000 0.5975650000000000 0.7224650000000000 O
atom_frac 0.8304910000000000 0.0974060000000000 0.6985680000000000 O
atom_frac 0.1027890000000000 0.7691120000000000 0.6964810000000000 O
atom_frac 0.0308920000000000 0.2796330000000000 0.6894670000000001 O
atom_frac 0.6063780000000000 0.2711420000000000 0.7246150000000000 O
atom_frac 0.8084420000000000 0.0834470000000000 0.7439040000000000 O
atom_frac 0.9440470000000000 0.8369100000000000 0.7454020000000000 O
atom_frac 0.8083620000000000 0.4539030000000000 0.7336640000000000 O
atom_frac 0.5341230000000000 0.7802960000000000 0.7315010000000000 O
