# 
# This is the geometry file that corresponds to the current relaxation step.
# If you do not want this file to be written, set the "write_restart_geometry" flag to .false.
#  aims_uuid : C1365663-96A0-453E-A17F-511B2C3410B7                                
# 
lattice_vector      7.72349913     -0.00636853     -0.01008543
lattice_vector      0.41926825      6.01359992     -0.01275105
lattice_vector     -5.42085158     -2.16442465     12.06268206
atom       3.95830202      4.50424571      7.30691730 C
atom       3.33053744      3.60445536      8.13004657 C
atom       3.20264734      3.85566907      9.53156127 C
atom       2.55032573      2.97179050     10.39037225 C
atom       2.43564677      3.23215744     11.77006295 C
atom       7.20449862      4.50794802      0.58277583 C
atom       7.09745848      4.77146159      1.94762466 C
atom       6.44481636      3.86894891      2.84066684 C
atom       4.09169603     -0.30638964      7.85010315 C
atom      -1.36979361      4.14921597      4.18972968 C
atom      -4.48253762     -0.66514714     11.45706516 C
atom      -4.37551501     -0.92865474     10.09221568 C
atom      -3.72289461     -0.02613094      9.19916792 C
atom      -1.23639372     -0.66142179      4.73292011 C
atom      -0.60861487      0.23836264      3.90979667 C
atom      -0.48070938     -0.01285701      2.50827908 C
atom       0.17160792      0.87102193      1.64946798 C
atom       0.28631467      0.61064247      0.26977744 C
atom       0.37904398      1.17995088      7.45033571 C
atom       0.31783961      0.30654537      8.50315903 C
atom      -0.32031241      0.68092263      9.72392947 C
atom      -0.40993855     -0.19255937     10.80574822 C
atom      -1.05962431      0.17532922     11.99858484 C
atom      -1.53894482      2.38191054     11.00879096 C
atom      -0.90081165      2.00668475      9.82775511 C
atom      -0.81543404      2.88220679      8.70247655 C
atom      -0.19519235      2.48100267      7.54899602 C
atom       2.34287954      2.66284147      4.58951064 C
atom       2.40409333      3.53625055      3.53669009 C
atom       3.04224782      3.16187463      2.31591680 C
atom       3.13187702      4.03535764      1.23409677 C
atom       3.78156443      3.66747064      0.04126015 C
atom       4.26088368      1.46088884      1.03105354 C
atom       3.62274730      1.83611245      2.21209020 C
atom       3.53736330      0.96058826      3.33736885 C
atom       2.91711233      1.36178691      4.49084680 C
atom       4.04377177      4.29704659      6.24056914 H
atom       2.91845597      2.67701459      7.73352778 H
atom       2.11657560      2.05706176      9.98836710 H
atom       6.77655303      3.59017551      0.18218505 H
atom       6.02077812      2.95325796      2.43473971 H
atom       4.59757085      0.39749870      7.18900672 H
atom      -1.87567784      3.44534115      4.85083311 H
atom      -4.05466812      0.25265893     11.85766022 H
atom      -3.29885651      0.88956138      9.60509234 H
atom      -1.32187646     -0.45422361      5.79926753 H
atom      -0.19653784      1.16580493      4.30631808 H
atom       0.60534797      1.78576097      2.05146223 H
atom       0.87114322      0.87375115      6.52903857 H
atom       0.75434417     -0.68765645      8.42305147 H
atom       0.02933010     -1.18624525     10.72642804 H
atom      -1.98125677      3.37464350     11.08558622 H
atom      -1.25818684      3.87397679      8.77945876 H
atom      -0.13540373      3.16021585      6.69966111 H
atom       1.85078226      2.96903910      5.51080997 H
atom       1.96761423      4.53046445      3.61678929 H
atom       2.69261258      5.02904483      1.31342235 H
atom       4.70319759      0.46815657      0.95425642 H
atom       3.98012344     -0.03117753      3.26037801 H
atom       2.85731382      0.68256866      5.34017690 H
