H669 C934
1.0
27.731920 0.000000 0.000000
-1.853781 15.809014 0.000000
0.000000 -0.000000 48.667195
H C
669 934
direct
0.046330 0.013443 0.407505 H
0.060990 0.732749 0.372784 H
0.893929 0.698851 0.350192 H
0.879269 0.979545 0.384912 H
0.546330 0.013443 0.407505 H
0.560990 0.732748 0.372784 H
0.393929 0.698851 0.350192 H
0.379269 0.979545 0.384912 H
0.013481 0.901240 0.379910 H
0.035790 0.734966 0.327074 H
0.952921 0.718151 0.315867 H
0.930613 0.884425 0.368703 H
0.513481 0.901240 0.379910 H
0.535789 0.734966 0.327074 H
0.452921 0.718151 0.315867 H
0.430613 0.884425 0.368703 H
0.090657 0.175357 0.407915 H
0.087892 0.633985 0.414465 H
0.836638 0.583004 0.380486 H
0.839404 0.124376 0.373936 H
0.590657 0.175357 0.407915 H
0.587892 0.633985 0.414465 H
0.336638 0.583004 0.380486 H
0.339404 0.124376 0.373936 H
0.167405 0.147271 0.424853 H
0.170420 0.692360 0.417714 H
0.760430 0.609170 0.362268 H
0.757416 0.064081 0.369407 H
0.667405 0.147271 0.424853 H
0.670420 0.692360 0.417714 H
0.260430 0.609170 0.362268 H
0.257416 0.064081 0.369407 H
0.718507 0.297428 0.403296 H
0.190164 0.836316 0.429215 H
0.733631 0.743683 0.367475 H
0.716930 0.993833 0.407032 H
0.218507 0.297428 0.403296 H
0.690164 0.836316 0.429215 H
0.233631 0.743683 0.367475 H
0.216930 0.993833 0.407032 H
0.788742 0.333293 0.376213 H
0.763776 0.459811 0.435343 H
0.782908 0.854023 0.390030 H
0.134027 0.403353 0.422908 H
0.288742 0.333293 0.376213 H
0.263776 0.459811 0.435343 H
0.282908 0.854023 0.390030 H
0.634027 0.403353 0.422908 H
0.866128 0.308582 0.393535 H
0.045329 0.866858 0.432375 H
0.860295 0.829313 0.407352 H
0.051163 0.346127 0.418558 H
0.366128 0.308582 0.393535 H
0.545329 0.866858 0.432375 H
0.360295 0.829313 0.407352 H
0.551163 0.346127 0.418558 H
0.992315 0.205390 0.535437 H
0.845639 0.370451 0.464563 H
0.830979 0.651146 0.499284 H
0.006974 0.924696 0.500716 H
0.839913 0.890798 0.478124 H
0.998040 0.685044 0.521876 H
0.012700 0.404349 0.487156 H
0.825254 0.171492 0.512844 H
0.492314 0.205390 0.535437 H
0.345639 0.370451 0.464563 H
0.330979 0.651146 0.499284 H
0.506974 0.924696 0.500716 H
0.339913 0.890798 0.478124 H
0.498040 0.685044 0.521876 H
0.512700 0.404349 0.487156 H
0.325254 0.171492 0.512844 H
0.959466 0.093187 0.507842 H
0.878488 0.482654 0.492158 H
0.856180 0.648929 0.544994 H
0.981774 0.926913 0.455006 H
0.898906 0.910098 0.443799 H
0.939048 0.665743 0.556201 H
0.961356 0.499469 0.503365 H
0.876597 0.076373 0.496635 H
0.459466 0.093187 0.507842 H
0.378488 0.482654 0.492158 H
0.356180 0.648929 0.544994 H
0.481774 0.926913 0.455006 H
0.398906 0.910098 0.443799 H
0.439048 0.665743 0.556201 H
0.461356 0.499469 0.503365 H
0.376597 0.076373 0.496635 H
0.036642 0.367304 0.535847 H
0.801312 0.208537 0.464153 H
0.804078 0.749910 0.457603 H
0.033876 0.825932 0.542397 H
0.782623 0.774951 0.508418 H
0.055331 0.800891 0.491582 H
0.052565 0.259518 0.498132 H
0.785388 0.316323 0.501868 H
0.536642 0.367304 0.535847 H
0.301312 0.208537 0.464153 H
0.304078 0.749910 0.457603 H
0.533876 0.825932 0.542397 H
0.282623 0.774951 0.508418 H
0.555331 0.800891 0.491582 H
0.552565 0.259518 0.498132 H
0.285388 0.316323 0.501868 H
0.113390 0.339218 0.552785 H
0.724564 0.236623 0.447215 H
0.721550 0.691534 0.454354 H
0.116404 0.884308 0.545646 H
0.706414 0.801118 0.490200 H
0.131539 0.774724 0.509800 H
0.134553 0.319813 0.502661 H
0.703400 0.256028 0.497339 H
0.613390 0.339218 0.552785 H
0.224564 0.236623 0.447215 H
0.221549 0.691534 0.454354 H
0.616404 0.884308 0.545646 H
0.206414 0.801118 0.490200 H
0.631539 0.774724 0.509800 H
0.634553 0.319813 0.502661 H
0.203400 0.256028 0.497339 H
0.173462 0.086467 0.468772 H
0.664492 0.489375 0.531228 H
0.701805 0.547578 0.442853 H
0.136148 0.028264 0.557147 H
0.679616 0.935630 0.495407 H
0.158338 0.640212 0.504593 H
0.175039 0.390062 0.465036 H
0.662914 0.185780 0.534964 H
0.673462 0.086467 0.468772 H
0.164492 0.489375 0.531228 H
0.201806 0.547578 0.442853 H
0.636148 0.028264 0.557147 H
0.179616 0.935630 0.495407 H
0.658338 0.640212 0.504593 H
0.675039 0.390062 0.465036 H
0.162914 0.185780 0.534964 H
0.103227 0.050602 0.495855 H
0.734727 0.525240 0.504145 H
0.709761 0.651758 0.563275 H
0.128193 0.924084 0.436725 H
0.728893 0.045970 0.517962 H
0.109061 0.529871 0.482038 H
0.080011 0.595301 0.550840 H
0.757943 0.980541 0.449160 H
0.603227 0.050602 0.495855 H
0.234727 0.525240 0.504145 H
0.209761 0.651758 0.563275 H
0.628193 0.924084 0.436725 H
0.228893 0.045970 0.517962 H
0.609061 0.529871 0.482038 H
0.580011 0.595301 0.550840 H
0.257943 0.980541 0.449160 H
0.025841 0.075312 0.478533 H
0.812113 0.500530 0.521467 H
0.846640 0.517037 0.439693 H
0.991314 0.058805 0.560307 H
0.806279 0.021260 0.535284 H
0.031674 0.554582 0.464716 H
0.997148 0.538074 0.546490 H
0.840806 0.037767 0.453510 H
0.525841 0.075312 0.478533 H
0.312113 0.500530 0.521467 H
0.346640 0.517037 0.439693 H
0.491314 0.058805 0.560307 H
0.306279 0.021260 0.535284 H
0.531674 0.554582 0.464716 H
0.497148 0.538074 0.546491 H
0.340806 0.037767 0.453510 H
0.791624 0.562399 0.592495 H
0.776964 0.843093 0.627216 H
0.944025 0.876991 0.649808 H
0.958684 0.596297 0.615088 H
0.291624 0.562399 0.592495 H
0.276964 0.843093 0.627216 H
0.444025 0.876991 0.649808 H
0.458684 0.596297 0.615088 H
0.824472 0.674602 0.620090 H
0.802164 0.840876 0.672926 H
0.885032 0.857691 0.684133 H
0.907341 0.691416 0.631297 H
0.324472 0.674602 0.620090 H
0.302164 0.840876 0.672926 H
0.385032 0.857691 0.684133 H
0.407341 0.691416 0.631297 H
0.747296 0.400484 0.592085 H
0.750062 0.941857 0.585535 H
0.001316 0.992838 0.619514 H
0.247296 0.400484 0.592085 H
0.250062 0.941857 0.585535 H
0.501316 0.992838 0.619514 H
0.498550 0.451466 0.626064 H
0.670548 0.428571 0.575147 H
0.667534 0.883481 0.582286 H
0.077524 0.966671 0.637732 H
0.080538 0.511761 0.630593 H
0.170548 0.428571 0.575147 H
0.167534 0.883481 0.582286 H
0.577524 0.966671 0.637732 H
0.580538 0.511761 0.630593 H
0.119447 0.278414 0.596704 H
0.647790 0.739525 0.570785 H
0.104322 0.832159 0.632525 H
0.121024 0.582009 0.592968 H
0.619446 0.278414 0.596704 H
0.147790 0.739525 0.570785 H
0.604322 0.832159 0.632525 H
0.621024 0.582009 0.592968 H
0.049211 0.242549 0.623787 H
0.074177 0.116031 0.564657 H
0.055045 0.721819 0.609970 H
0.703927 0.172488 0.577092 H
0.549211 0.242549 0.623787 H
0.574177 0.116031 0.564657 H
0.555045 0.721819 0.609970 H
0.203927 0.172488 0.577092 H
0.971825 0.267259 0.606465 H
0.792624 0.708984 0.567625 H
0.977659 0.746529 0.592648 H
0.786791 0.229714 0.581442 H
0.471825 0.267259 0.606465 H
0.292624 0.708984 0.567625 H
0.477659 0.746529 0.592648 H
0.286791 0.229714 0.581442 H
0.649912 0.364436 0.705024 H
0.995189 0.434489 0.751722 H
0.822566 0.268304 0.624573 H
0.905433 0.285117 0.635780 H
0.732775 0.421662 0.709374 H
0.917806 0.459202 0.734398 H
0.731373 0.508271 0.629800 H
0.982621 0.559246 0.663780 H
0.649385 0.447976 0.625271 H
0.059366 0.531156 0.680720 H
0.904682 0.788257 0.743015 H
0.737625 0.754363 0.720421 H
0.608899 0.377727 0.662896 H
0.065421 0.470351 0.724639 H
0.853346 0.883385 0.759222 H
0.770480 0.866572 0.748014 H
0.026001 0.787253 0.678771 H
0.680724 0.717200 0.632073 H
0.944540 0.643418 0.753995 H
0.693292 0.592442 0.720014 H
0.943137 0.730027 0.674421 H
0.758107 0.692486 0.649396 H
0.026528 0.703713 0.758523 H
0.616547 0.620532 0.703075 H
0.067013 0.773961 0.720899 H
0.610491 0.681337 0.659155 H
0.771230 0.363431 0.640779 H
0.938287 0.397326 0.663373 H
0.149912 0.364436 0.705024 H
0.495196 0.434486 0.751720 H
0.322581 0.268298 0.624568 H
0.405450 0.285110 0.635775 H
0.232775 0.421662 0.709374 H
0.417810 0.459201 0.734397 H
0.231373 0.508271 0.629800 H
0.482626 0.559244 0.663779 H
0.149385 0.447976 0.625271 H
0.559374 0.531153 0.680717 H
0.404669 0.788262 0.743019 H
0.237609 0.754370 0.720426 H
0.108899 0.377727 0.662896 H
0.565431 0.470347 0.724636 H
0.353326 0.883393 0.759227 H
0.270458 0.866581 0.748020 H
0.525996 0.787255 0.678772 H
0.180712 0.717205 0.632076 H
0.444535 0.643420 0.753996 H
0.193281 0.592446 0.720017 H
0.443132 0.730029 0.674422 H
0.258098 0.692490 0.649398 H
0.526522 0.703715 0.758525 H
0.116533 0.620538 0.703078 H
0.567008 0.773963 0.720900 H
0.110477 0.681343 0.659159 H
0.271238 0.363428 0.640777 H
0.438299 0.397321 0.663370 H
0.995174 0.434493 0.751716 H
0.649861 0.364428 0.705017 H
0.905365 0.285122 0.635763 H
0.822490 0.268306 0.624555 H
0.917787 0.459203 0.734394 H
0.732737 0.421656 0.709368 H
0.982605 0.559248 0.663776 H
0.731330 0.508264 0.629794 H
0.059352 0.531162 0.680714 H
0.649329 0.447967 0.625264 H
0.737640 0.754351 0.720431 H
0.904715 0.788250 0.743026 H
0.065409 0.470357 0.724633 H
0.608839 0.377718 0.662888 H
0.770520 0.866558 0.748030 H
0.853395 0.883373 0.759238 H
0.680711 0.717187 0.632077 H
0.026024 0.787252 0.678776 H
0.693280 0.592432 0.720017 H
0.944555 0.643416 0.753999 H
0.943148 0.730024 0.674425 H
0.616533 0.620518 0.703079 H
0.026556 0.703712 0.758530 H
0.610476 0.681322 0.659160 H
0.067046 0.773961 0.720905 H
0.938244 0.397329 0.663362 H
0.771170 0.363430 0.640767 H
0.494457 0.436727 0.751117 H
0.148147 0.369763 0.703586 H
0.402522 0.293973 0.633388 H
0.319408 0.277902 0.621981 H
0.417056 0.461480 0.733783 H
0.231472 0.425594 0.708312 H
0.481903 0.561434 0.663190 H
0.229904 0.512706 0.628603 H
0.558638 0.533388 0.680117 H
0.147431 0.453875 0.623679 H
0.238738 0.750936 0.721347 H
0.406295 0.783336 0.744344 H
0.564697 0.472577 0.724038 H
0.106809 0.384037 0.661193 H
0.272646 0.859941 0.749805 H
0.355760 0.876013 0.761213 H
0.180711 0.717187 0.632077 H
0.527021 0.784151 0.679608 H
0.193265 0.592481 0.720004 H
0.445264 0.641209 0.754591 H
0.258112 0.692435 0.649410 H
0.443696 0.728320 0.674882 H
0.116530 0.620526 0.703077 H
0.527737 0.700040 0.759515 H
0.568359 0.769877 0.722001 H
0.436430 0.402979 0.661846 H
0.268873 0.370579 0.638849 H
0.001030 0.913765 0.737902 H
0.655745 0.843704 0.691206 H
0.831017 0.049638 0.812065 H
0.748149 0.032823 0.800858 H
0.923643 0.938476 0.720580 H
0.738608 0.900931 0.695556 H
0.947301 0.184786 0.747447 H
0.696047 0.133804 0.713468 H
0.023509 0.158619 0.765664 H
0.613518 0.075428 0.710218 H
0.785898 0.082745 0.606056 H
0.952959 0.116643 0.628649 H
0.050307 0.024106 0.760457 H
0.593774 0.931472 0.698716 H
0.844890 0.102046 0.571731 H
0.927759 0.118860 0.582938 H
0.674878 0.237918 0.645894 H
0.020163 0.307979 0.692590 H
0.728607 0.966898 0.636350 H
0.979861 0.017879 0.670329 H
0.752264 0.213208 0.663216 H
0.937299 0.250753 0.688240 H
0.652398 0.993064 0.618132 H
0.062389 0.076255 0.673578 H
0.625600 0.127577 0.623339 H
0.082133 0.220212 0.685080 H
0.890009 0.068938 0.777741 H
0.722948 0.035040 0.755148 H
0.501031 0.913766 0.737903 H
0.155747 0.843706 0.691207 H
0.331017 0.049638 0.812065 H
0.248149 0.032823 0.800858 H
0.423644 0.938476 0.720581 H
0.238610 0.900932 0.695557 H
0.447299 0.184785 0.747446 H
0.196046 0.133804 0.713467 H
0.523507 0.158618 0.765663 H
0.113518 0.075429 0.710218 H
0.285898 0.082745 0.606056 H
0.452959 0.116643 0.628648 H
0.550307 0.024106 0.760457 H
0.093776 0.931473 0.698717 H
0.344890 0.102046 0.571731 H
0.427758 0.118860 0.582938 H
0.174876 0.237917 0.645893 H
0.520159 0.307978 0.692589 H
0.228608 0.966898 0.636350 H
0.479861 0.017879 0.670329 H
0.252263 0.213207 0.663215 H
0.437297 0.250752 0.688239 H
0.152400 0.993065 0.618133 H
0.562389 0.076255 0.673578 H
0.125600 0.127577 0.623339 H
0.582131 0.220211 0.685079 H
0.390009 0.068938 0.777740 H
0.222948 0.035040 0.755148 H
0.853325 0.883364 0.759229 H
0.770457 0.866549 0.748022 H
0.938299 0.397338 0.663369 H
0.822582 0.268320 0.624567 H
0.905450 0.285135 0.635774 H
0.065432 0.470362 0.724636 H
0.904669 0.788244 0.743020 H
0.737608 0.754346 0.720427 H
0.353325 0.883364 0.759229 H
0.270457 0.866549 0.748022 H
0.258099 0.692476 0.649399 H
0.193280 0.592432 0.720017 H
0.271238 0.363440 0.640776 H
0.438299 0.397338 0.663369 H
0.110478 0.681322 0.659160 H
0.322582 0.268320 0.624567 H
0.405450 0.285135 0.635774 H
0.495193 0.434497 0.751719 H
0.559374 0.531166 0.680717 H
0.565429 0.470362 0.724636 H
0.404669 0.788244 0.743020 H
0.237608 0.754346 0.720427 H
0.990739 0.436519 0.750978 H
0.639271 0.369265 0.703254 H
0.887796 0.293146 0.632837 H
0.803444 0.277005 0.621384 H
0.913269 0.461267 0.733642 H
0.724920 0.425227 0.708067 H
0.978267 0.561230 0.663053 H
0.722514 0.512291 0.628326 H
0.054935 0.533180 0.679978 H
0.637602 0.453323 0.623311 H
0.744419 0.751255 0.721560 H
0.914472 0.783795 0.744651 H
0.061005 0.472369 0.723900 H
0.596296 0.383447 0.660799 H
0.783655 0.860559 0.750217 H
0.868007 0.876700 0.761671 H
0.032180 0.784441 0.679801 H
0.693183 0.592476 0.720001 H
0.948937 0.641415 0.754729 H
0.758182 0.692438 0.649413 H
0.946531 0.728479 0.674988 H
0.616516 0.620525 0.703077 H
0.033849 0.700383 0.759744 H
0.610446 0.681336 0.659155 H
0.075154 0.770259 0.722255 H
0.927031 0.402451 0.661495 H
0.756979 0.369911 0.638404 H
0.674866 0.237913 0.645892 H
0.927734 0.118851 0.582934 H
0.844863 0.102035 0.571727 H
0.652385 0.993059 0.618130 H
0.722969 0.035048 0.755151 H
0.890035 0.068948 0.777745 H
0.625585 0.127571 0.623337 H
0.748181 0.032836 0.800863 H
0.831052 0.049651 0.812070 H
0.001049 0.913774 0.737906 H
0.947316 0.184791 0.747449 H
0.923658 0.938482 0.720583 H
0.023530 0.158627 0.765667 H
0.050330 0.024115 0.760461 H
0.952946 0.116638 0.628646 H
0.785880 0.082738 0.606053 H
0.995208 0.434495 0.751722 H
0.649938 0.364432 0.705030 H
0.905496 0.285128 0.635785 H
0.822632 0.268313 0.624578 H
0.917821 0.459205 0.734400 H
0.732795 0.421659 0.709378 H
0.982638 0.559250 0.663781 H
0.731396 0.508268 0.629805 H
0.059387 0.531164 0.680720 H
0.649415 0.447972 0.625278 H
0.737590 0.754348 0.720423 H
0.904644 0.788247 0.743014 H
0.065443 0.470359 0.724639 H
0.608931 0.377723 0.662903 H
0.770423 0.866553 0.748014 H
0.853287 0.883368 0.759220 H
0.025980 0.787250 0.678769 H
0.944523 0.643414 0.753994 H
0.943124 0.730023 0.674421 H
0.026504 0.703710 0.758521 H
0.066988 0.773958 0.720896 H
0.938329 0.397333 0.663376 H
0.771275 0.363435 0.640785 H
0.149899 0.364435 0.705022 H
0.405429 0.285134 0.635771 H
0.322559 0.268319 0.624564 H
0.231362 0.508270 0.629798 H
0.149371 0.447975 0.625269 H
0.404681 0.788244 0.743022 H
0.108884 0.377727 0.662893 H
0.270473 0.866549 0.748024 H
0.353343 0.883364 0.759232 H
0.438285 0.397337 0.663367 H
0.271221 0.363439 0.640774 H
0.680661 0.717190 0.632068 H
0.853242 0.883367 0.759214 H
0.770367 0.866553 0.748006 H
0.943110 0.730023 0.674419 H
0.758060 0.692479 0.649392 H
0.693239 0.592434 0.720010 H
0.616477 0.620520 0.703069 H
0.938344 0.397335 0.663377 H
0.610417 0.681325 0.659150 H
0.822644 0.268317 0.624578 H
0.905519 0.285131 0.635786 H
0.995224 0.434495 0.751724 H
0.059408 0.531164 0.680723 H
0.065468 0.470359 0.724642 H
0.904615 0.788246 0.743010 H
0.737541 0.754349 0.720415 H
0.180700 0.717194 0.632071 H
0.353307 0.883376 0.759219 H
0.270437 0.866562 0.748012 H
0.438309 0.397331 0.663374 H
0.110463 0.681331 0.659154 H
0.322596 0.268311 0.624574 H
0.405465 0.285125 0.635782 H
0.404657 0.788252 0.743014 H
0.237593 0.754356 0.720419 H
0.174900 0.238022 0.645841 H
0.520183 0.308076 0.692540 H
0.252281 0.213289 0.663174 H
0.437315 0.250831 0.688200 H
0.228597 0.966852 0.636373 H
0.479850 0.017828 0.670355 H
0.152394 0.993041 0.618144 H
0.562382 0.076223 0.673594 H
0.125611 0.127628 0.623314 H
0.582141 0.220253 0.685058 H
0.501008 0.913663 0.737954 H
0.155725 0.843609 0.691255 H
0.447310 0.184833 0.747422 H
0.196058 0.133857 0.713441 H
0.423626 0.938396 0.720621 H
0.238592 0.900854 0.695595 H
0.523514 0.158644 0.765651 H
0.113526 0.075462 0.710201 H
0.550296 0.024057 0.760481 H
0.093766 0.931432 0.698737 H
0.059376 0.531166 0.680717 H
0.149934 0.364384 0.704971 H
0.495217 0.434448 0.751670 H
0.232793 0.421621 0.709332 H
0.417826 0.459168 0.734358 H
0.231363 0.508293 0.629823 H
0.482615 0.559277 0.663805 H
0.149380 0.447987 0.625283 H
0.559368 0.531181 0.680733 H
0.108910 0.377702 0.662870 H
0.565440 0.470340 0.724615 H
0.525974 0.787298 0.678824 H
0.180691 0.717234 0.632125 H
0.444545 0.643389 0.753972 H
0.193292 0.592405 0.719991 H
0.443115 0.730061 0.674463 H
0.258081 0.692515 0.649438 H
0.526528 0.703695 0.758512 H
0.116540 0.620501 0.703062 H
0.566998 0.773980 0.720925 H
0.110468 0.681342 0.659180 H
0.020152 0.307974 0.692587 H
0.062376 0.076250 0.673576 H
0.082119 0.220205 0.685077 H
0.655762 0.843712 0.691210 H
0.696061 0.133810 0.713470 H
0.738621 0.900937 0.695559 H
0.613538 0.075436 0.710221 H
0.593795 0.931481 0.698720 H
0.174859 0.237909 0.645890 H
0.427720 0.118843 0.582929 H
0.344847 0.102027 0.571722 H
0.228594 0.966892 0.636347 H
0.152377 0.993055 0.618127 H
0.222981 0.035055 0.755155 H
0.390051 0.068956 0.777750 H
0.125576 0.127567 0.623334 H
0.248200 0.032846 0.800870 H
0.331073 0.049662 0.812077 H
0.155758 0.843711 0.691210 H
0.501061 0.913780 0.737910 H
0.196059 0.133809 0.713470 H
0.447326 0.184796 0.747452 H
0.238622 0.900937 0.695560 H
0.423666 0.938486 0.720586 H
0.113531 0.075434 0.710221 H
0.523543 0.158634 0.765672 H
0.093787 0.931478 0.698720 H
0.550344 0.024122 0.760465 H
0.452939 0.116634 0.628644 H
0.285869 0.082732 0.606049 H
0.995187 0.434500 0.751714 H
0.822563 0.268328 0.624558 H
0.905429 0.285144 0.635763 H
0.059364 0.531170 0.680711 H
0.904685 0.788237 0.743028 H
0.737628 0.754337 0.720437 H
0.065419 0.470366 0.724630 H
0.853350 0.883353 0.759242 H
0.770484 0.866537 0.748036 H
0.680726 0.717180 0.632085 H
0.693293 0.592426 0.720024 H
0.758108 0.692472 0.649405 H
0.616549 0.620511 0.703088 H
0.610494 0.681314 0.659170 H
0.771228 0.363444 0.640771 H
0.938285 0.397344 0.663362 H
0.322584 0.268337 0.624563 H
0.405452 0.285153 0.635770 H
0.417810 0.459211 0.734396 H
0.482627 0.559258 0.663777 H
0.404668 0.788230 0.743023 H
0.237606 0.754328 0.720431 H
0.353323 0.883341 0.759234 H
0.270455 0.866525 0.748028 H
0.525995 0.787242 0.678773 H
0.180710 0.717174 0.632080 H
0.444534 0.643407 0.753997 H
0.193280 0.592420 0.720020 H
0.443132 0.730016 0.674424 H
0.526522 0.703702 0.758526 H
0.116531 0.620503 0.703083 H
0.567008 0.773951 0.720901 H
0.110475 0.681306 0.659164 H
0.438300 0.397350 0.663366 H
0.649618 0.364352 0.704950 H
0.994922 0.434418 0.751650 H
0.732543 0.421596 0.709315 H
0.917589 0.459144 0.734341 H
0.731503 0.508308 0.629833 H
0.982771 0.559293 0.663815 H
0.649452 0.447995 0.625288 H
0.059465 0.531191 0.680740 H
0.608755 0.377686 0.662860 H
0.065313 0.470327 0.724606 H
0.026285 0.787330 0.678845 H
0.680980 0.717264 0.632145 H
0.944399 0.643374 0.753962 H
0.693131 0.592389 0.719980 H
0.943359 0.730086 0.674480 H
0.758313 0.692538 0.649453 H
0.026450 0.703687 0.758507 H
0.616437 0.620491 0.703055 H
0.067147 0.773996 0.720935 H
0.610589 0.681355 0.659189 H
0.174924 0.237936 0.645901 H
0.427857 0.118900 0.582953 H
0.345000 0.102090 0.571748 H
0.252290 0.213218 0.663220 H
0.228642 0.966912 0.636355 H
0.152455 0.993088 0.618141 H
0.222866 0.035007 0.755135 H
0.389904 0.068895 0.777724 H
0.125662 0.127602 0.623349 H
0.248018 0.032770 0.800838 H
0.330875 0.049580 0.812043 H
0.155715 0.843693 0.691203 H
0.500951 0.913734 0.737890 H
0.196015 0.133791 0.713463 H
0.447234 0.184758 0.747436 H
0.238577 0.900918 0.695552 H
0.423586 0.938453 0.720572 H
0.113487 0.075416 0.710213 H
0.523420 0.158583 0.765650 H
0.093744 0.931460 0.698712 H
0.550213 0.024068 0.760442 H
0.453010 0.116664 0.628656 H
0.285972 0.082775 0.606067 H
0.149925 0.364428 0.705027 H
0.322606 0.268305 0.624573 H
0.231384 0.508264 0.629802 H
0.149400 0.447967 0.625274 H
0.108915 0.377718 0.662899 H
0.566998 0.773962 0.720898 H
0.271256 0.363429 0.640781 H
0.758094 0.692477 0.649398 H
0.920093 0.186694 0.432533 C
0.920093 0.686694 0.432533 C
0.420093 0.186694 0.432532 C
0.420093 0.686694 0.432532 C
0.001413 0.134676 0.430615 C
0.006721 0.714092 0.418042 C
0.906182 0.693692 0.404445 C
0.900873 0.114276 0.417018 C
0.501413 0.134676 0.430615 C
0.506721 0.714092 0.418042 C
0.406182 0.693692 0.404445 C
0.400873 0.114276 0.417018 C
0.982566 0.069568 0.412821 C
0.992024 0.711058 0.390420 C
0.941357 0.700778 0.383568 C
0.931899 0.059288 0.405969 C
0.482566 0.069568 0.412821 C
0.492024 0.711058 0.390420 C
0.441357 0.700778 0.383568 C
0.431899 0.059288 0.405969 C
0.012020 0.007631 0.402578 C
0.026509 0.724383 0.368262 C
0.928297 0.704455 0.354980 C
0.913808 0.987703 0.389297 C
0.512020 0.007631 0.402578 C
0.526509 0.724383 0.368262 C
0.428297 0.704455 0.354980 C
0.413808 0.987703 0.389297 C
0.993378 0.942220 0.386455 C
0.012320 0.725588 0.341592 C
0.962258 0.715430 0.334822 C
0.943316 0.932062 0.379685 C
0.493378 0.942220 0.386455 C
0.512320 0.725588 0.341592 C
0.462258 0.715430 0.334822 C
0.443316 0.932062 0.379685 C
0.840862 0.255885 0.430167 C
0.058966 0.745565 0.423289 C
0.855390 0.704258 0.395758 C
0.847532 0.086703 0.414370 C
0.340862 0.255885 0.430167 C
0.558966 0.745565 0.423289 C
0.355390 0.704258 0.395758 C
0.347531 0.086703 0.414370 C
0.093033 0.148465 0.426255 C
0.096146 0.695025 0.418883 C
0.825746 0.640159 0.382315 C
0.822633 0.093599 0.389687 C
0.593034 0.148465 0.426255 C
0.596146 0.695025 0.418883 C
0.325746 0.640159 0.382315 C
0.322633 0.093599 0.389687 C
0.754043 0.251566 0.435920 C
0.144386 0.728955 0.420850 C
0.781146 0.655251 0.371726 C
0.774687 0.058624 0.387025 C
0.254043 0.251566 0.435920 C
0.644386 0.728955 0.420850 C
0.281146 0.655251 0.371726 C
0.274687 0.058624 0.387025 C
0.750069 0.287571 0.410137 C
0.156428 0.813657 0.427523 C
0.765074 0.734248 0.374597 C
0.750546 0.016915 0.409006 C
0.250069 0.287571 0.410137 C
0.656428 0.813657 0.427523 C
0.265074 0.734248 0.374597 C
0.250546 0.016915 0.409006 C
0.791385 0.308008 0.394372 C
0.119875 0.864475 0.432007 C
0.794097 0.798372 0.387949 C
0.774806 0.009784 0.433639 C
0.291385 0.308008 0.394372 C
0.619875 0.864475 0.432007 C
0.294097 0.798372 0.387949 C
0.274806 0.009784 0.433639 C
0.836337 0.292589 0.404363 C
0.071638 0.830748 0.429796 C
0.838888 0.783521 0.398320 C
0.069087 0.339815 0.435840 C
0.336337 0.292589 0.404363 C
0.571638 0.830748 0.429796 C
0.338888 0.783521 0.398320 C
0.569087 0.339815 0.435840 C
0.971876 0.197201 0.439535 C
0.866078 0.378641 0.560465 C
0.866078 0.878641 0.560465 C
0.971876 0.697201 0.439535 C
0.471876 0.197201 0.439535 C
0.366077 0.378641 0.560465 C
0.366077 0.878641 0.560465 C
0.471876 0.697201 0.439535 C
0.947397 0.326624 0.558547 C
0.890556 0.249218 0.441453 C
0.885248 0.669803 0.454026 C
0.952706 0.906039 0.545974 C
0.852167 0.885639 0.532377 C
0.985787 0.690203 0.467623 C
0.991096 0.269618 0.455050 C
0.846858 0.306223 0.544950 C
0.447397 0.326624 0.558547 C
0.390556 0.249218 0.441453 C
0.385248 0.669803 0.454026 C
0.452706 0.906039 0.545974 C
0.352167 0.885639 0.532377 C
0.485787 0.690203 0.467623 C
0.491096 0.269618 0.455050 C
0.346858 0.306223 0.544950 C
0.928550 0.261516 0.540753 C
0.909403 0.314326 0.459247 C
0.899945 0.672836 0.481648 C
0.938008 0.903006 0.518352 C
0.887341 0.892725 0.511500 C
0.950612 0.683117 0.488500 C
0.960070 0.324607 0.466099 C
0.877883 0.251235 0.533901 C
0.428550 0.261516 0.540753 C
0.409403 0.314326 0.459247 C
0.399945 0.672836 0.481648 C
0.438008 0.903006 0.518352 C
0.387341 0.892725 0.511500 C
0.450612 0.683117 0.488500 C
0.460070 0.324607 0.466099 C
0.377883 0.251235 0.533901 C
0.958005 0.199578 0.530511 C
0.879949 0.376263 0.469489 C
0.865460 0.659511 0.503806 C
0.972494 0.916330 0.496194 C
0.874282 0.896402 0.482912 C
0.963672 0.679439 0.517088 C
0.978161 0.396191 0.482771 C
0.859793 0.179650 0.517229 C
0.458005 0.199578 0.530511 C
0.379949 0.376263 0.469489 C
0.365460 0.659511 0.503806 C
0.472494 0.916330 0.496194 C
0.374282 0.896402 0.482912 C
0.463672 0.679439 0.517088 C
0.478161 0.396191 0.482771 C
0.359793 0.179650 0.517229 C
0.939362 0.134167 0.514387 C
0.898591 0.441674 0.485613 C
0.879649 0.658307 0.530476 C
0.958304 0.917535 0.469524 C
0.908243 0.907377 0.462754 C
0.929711 0.668464 0.537246 C
0.948653 0.451832 0.492383 C
0.889301 0.124009 0.507617 C
0.439362 0.134167 0.514387 C
0.398591 0.441674 0.485613 C
0.379649 0.658307 0.530476 C
0.458304 0.917535 0.469524 C
0.408243 0.907377 0.462754 C
0.429711 0.668464 0.537246 C
0.448653 0.451832 0.492383 C
0.389301 0.124009 0.507617 C
0.051107 0.128010 0.441901 C
0.786846 0.447832 0.558099 C
0.833004 0.638329 0.448779 C
0.004950 0.937513 0.551221 C
0.801374 0.896206 0.523690 C
0.036579 0.679636 0.476310 C
0.044438 0.297192 0.457698 C
0.793516 0.278650 0.542302 C
0.551107 0.128010 0.441901 C
0.286846 0.447832 0.558099 C
0.333003 0.638329 0.448779 C
0.504950 0.937513 0.551221 C
0.301374 0.896206 0.523690 C
0.536579 0.679636 0.476310 C
0.544438 0.297192 0.457698 C
0.293516 0.278650 0.542302 C
0.039018 0.340412 0.554187 C
0.798936 0.235430 0.445813 C
0.795823 0.688870 0.453185 C
0.042130 0.886972 0.546815 C
0.771730 0.832106 0.510247 C
0.066223 0.743736 0.489753 C
0.069336 0.290296 0.482381 C
0.768618 0.285546 0.517619 C
0.539018 0.340412 0.554187 C
0.298936 0.235430 0.445813 C
0.295823 0.688870 0.453185 C
0.542130 0.886972 0.546815 C
0.271730 0.832106 0.510247 C
0.566223 0.743736 0.489753 C
0.569336 0.290296 0.482381 C
0.268618 0.285546 0.517619 C
0.137926 0.132328 0.436148 C
0.700027 0.443514 0.563852 C
0.747583 0.654939 0.451218 C
0.090370 0.920902 0.548782 C
0.727131 0.847198 0.499658 C
0.110823 0.728643 0.500342 C
0.117282 0.325270 0.485043 C
0.720672 0.250571 0.514957 C
0.637926 0.132328 0.436148 C
0.200027 0.443514 0.563852 C
0.247583 0.654939 0.451218 C
0.590370 0.920902 0.548782 C
0.227131 0.847198 0.499658 C
0.610823 0.728643 0.500342 C
0.617282 0.325270 0.485043 C
0.220672 0.250571 0.514957 C
0.141900 0.096323 0.461931 C
0.696053 0.479519 0.538069 C
0.735541 0.570237 0.444545 C
0.102413 0.005604 0.555455 C
0.711059 0.926196 0.502529 C
0.126895 0.649646 0.497471 C
0.141423 0.366980 0.463062 C
0.696531 0.208862 0.536938 C
0.641900 0.096323 0.461931 C
0.196053 0.479519 0.538069 C
0.235541 0.570237 0.444545 C
0.602413 0.005604 0.555455 C
0.211059 0.926196 0.502529 C
0.626895 0.649646 0.497471 C
0.641423 0.366980 0.463062 C
0.196531 0.208862 0.536938 C
0.100584 0.075887 0.477696 C
0.737370 0.499955 0.522304 C
0.772094 0.519420 0.440061 C
0.065859 0.056422 0.559939 C
0.740081 0.990319 0.515881 C
0.097872 0.585522 0.484119 C
0.117163 0.374110 0.438429 C
0.720790 0.201731 0.561571 C
0.600584 0.075887 0.477696 C
0.237370 0.499955 0.522304 C
0.272094 0.519420 0.440061 C
0.565859 0.056422 0.559939 C
0.240081 0.990319 0.515881 C
0.597872 0.585522 0.484119 C
0.617163 0.374110 0.438429 C
0.220790 0.201731 0.561571 C
0.055632 0.091306 0.467705 C
0.782321 0.484536 0.532295 C
0.820331 0.553147 0.442272 C
0.017623 0.022695 0.557728 C
0.784873 0.975468 0.526252 C
0.053081 0.600373 0.473748 C
0.015071 0.531763 0.563772 C
0.822882 0.044079 0.436228 C
0.555632 0.091306 0.467705 C
0.282321 0.484536 0.532295 C
0.320331 0.553147 0.442272 C
0.517623 0.022695 0.557728 C
0.284873 0.975468 0.526252 C
0.553081 0.600373 0.473748 C
0.515071 0.531763 0.563772 C
0.322882 0.044079 0.436228 C
0.917861 0.389148 0.567468 C
0.917861 0.889148 0.567468 C
0.417861 0.389148 0.567468 C
0.417861 0.889148 0.567468 C
0.836541 0.441165 0.569385 C
0.831232 0.861750 0.581958 C
0.931772 0.882150 0.595555 C
0.937080 0.461565 0.582982 C
0.336541 0.441165 0.569385 C
0.331232 0.861750 0.581958 C
0.431772 0.882150 0.595555 C
0.437080 0.461565 0.582982 C
0.855388 0.506273 0.587179 C
0.845930 0.864783 0.609580 C
0.896597 0.875064 0.616432 C
0.906055 0.516554 0.594031 C
0.355388 0.506273 0.587179 C
0.345930 0.864783 0.609580 C
0.396597 0.875064 0.616432 C
0.406055 0.516554 0.594031 C
0.825933 0.568211 0.597422 C
0.811444 0.851459 0.631738 C
0.909656 0.871386 0.645020 C
0.924146 0.588139 0.610703 C
0.325933 0.568211 0.597422 C
0.311444 0.851459 0.631738 C
0.409656 0.871386 0.645020 C
0.424146 0.588139 0.610703 C
0.844576 0.633622 0.613545 C
0.825634 0.850254 0.658408 C
0.875695 0.860412 0.665178 C
0.894637 0.643780 0.620315 C
0.344576 0.633622 0.613545 C
0.325634 0.850254 0.658408 C
0.375695 0.860412 0.665178 C
0.394637 0.643780 0.620315 C
0.997092 0.319957 0.569833 C
0.778988 0.830276 0.576711 C
0.982564 0.871583 0.604242 C
0.990422 0.489139 0.585630 C
0.497092 0.319957 0.569833 C
0.278988 0.830276 0.576711 C
0.482564 0.871583 0.604242 C
0.490422 0.489139 0.585630 C
0.744920 0.427377 0.573745 C
0.741808 0.880817 0.581117 C
0.012208 0.935683 0.617685 C
0.015320 0.482243 0.610313 C
0.244920 0.427377 0.573745 C
0.241808 0.880817 0.581117 C
0.512208 0.935683 0.617685 C
0.515320 0.482243 0.610313 C
0.083911 0.324275 0.564080 C
0.693568 0.846887 0.579150 C
0.056807 0.920591 0.628274 C
0.063266 0.517218 0.612975 C
0.583911 0.324275 0.564080 C
0.193568 0.846887 0.579150 C
0.556807 0.920591 0.628274 C
0.563266 0.517218 0.612975 C
0.087885 0.288270 0.589863 C
0.681525 0.762185 0.572477 C
0.072879 0.841593 0.625403 C
0.087407 0.558927 0.590994 C
0.587885 0.288270 0.589863 C
0.181525 0.762185 0.572477 C
0.572879 0.841593 0.625403 C
0.587407 0.558927 0.590994 C
0.046568 0.267834 0.605628 C
0.718079 0.711367 0.567993 C
0.043857 0.777470 0.612051 C
0.063148 0.566058 0.566361 C
0.546568 0.267834 0.605628 C
0.218079 0.711367 0.567993 C
0.543857 0.777470 0.612051 C
0.563148 0.566058 0.566361 C
0.001617 0.283253 0.595637 C
0.766315 0.745094 0.570204 C
0.999065 0.792321 0.601680 C
0.768867 0.236026 0.564160 C
0.501617 0.283253 0.595637 C
0.266315 0.745094 0.570204 C
0.499065 0.792321 0.601680 C
0.268867 0.236026 0.564160 C
0.033397 0.750879 0.718925 C
0.642052 0.671480 0.665996 C
0.835272 0.315943 0.635553 C
0.885332 0.326100 0.642324 C
0.903978 0.391514 0.658446 C
0.883070 0.653518 0.710912 C
0.782533 0.633120 0.697315 C
0.009137 0.758010 0.694291 C
0.683366 0.691914 0.650232 C
0.739501 0.470597 0.670234 C
0.943072 0.511900 0.697767 C
0.852050 0.708512 0.721960 C
0.801384 0.698232 0.715108 C
0.961061 0.723715 0.691702 C
0.728316 0.676493 0.660224 C
0.714602 0.477493 0.645551 C
0.984997 0.532353 0.682121 C
0.870144 0.780100 0.738631 C
0.771934 0.760174 0.725348 C
0.666656 0.442519 0.642889 C
0.029888 0.516214 0.692015 C
0.840640 0.835745 0.748241 C
0.790580 0.825589 0.741470 C
0.642516 0.400809 0.664870 C
0.033861 0.480209 0.717798 C