#=======================================================
# FHI-aims file: output/HOJCOB.001.2.0.in
# Created using the Atomic Simulation Environment (ASE)
# Tue Feb 11 09:01:59 2020
#=======================================================
lattice_vector 6.5957600000000003 0.0000000000000000 0.0000000000000000 
lattice_vector -1.5450440000000001 7.2328489999999999 0.0000000000000000 
lattice_vector 0.0000000000000000 0.0000000000000000 101.9838120000000004 
atom 3.4398865281479996 5.5797307311069995 42.4513736478720034 H
atom 4.4688749295520003 5.4111257880680004 47.9754288086639988 H
atom 1.9266098086200001 1.7891536928850000 42.9943354629600023 H
atom 4.3627263347919998 2.8475871169980000 40.5470299263960001 H
atom 5.0806705950800009 0.9059143372500000 46.0671077185199991 H
atom 1.0053191005759998 4.5223822343440006 44.8986791844359985 H
atom 2.2269418455400003 6.0027945348150000 41.2226726808960038 H
atom -0.9194749776919999 4.9860584851869998 46.7427504730200027 H
atom 3.1407359533119998 1.3669505982079999 44.2189570774559968 H
atom 4.7919859257080004 4.0175076755969998 41.8339636500240033 H
atom 3.1144688926640010 6.9753161785059996 47.3641378395359993 H
atom 0.5746530778599999 3.3516660623550001 43.6136831532360034 H
atom 0.9387939760800001 1.9771716026399999 48.4962601365479955 H
atom 0.3260811480360002 6.4820141781589999 50.4027455180760029 H
atom -0.2687129751560001 2.4023835625009999 49.7290404560040002 H
atom 2.2930680977680002 0.4129812122020000 49.1076530894880037 H
atom 3.4807539862559995 5.5977622236639997 53.4754157898240052 H
atom 4.5097474383760003 5.4291645134740003 58.9995729344280022 H
atom 1.9674757216840002 1.8071924182910000 54.0183776049120041 H
atom 4.4035937929000006 2.8656186095550003 51.5710720683480019 H
atom 5.1215365081440005 0.9239530626560000 57.0911498604720009 H
atom 1.0461850136399997 4.5404209597500005 55.9228233102000019 H
atom 2.2678093036480007 6.0208260273719993 52.2467148228479985 H
atom -0.8786090646280001 5.0040972105930006 57.7667926149720046 H
atom 3.1816018663760000 1.3849893236139998 55.2431012032200002 H
atom 4.8328518387720010 4.0355464010029998 52.8581077757879925 H
atom 3.1553429465319995 6.9933476710629998 58.3881799814880011 H
atom 0.6155189909239999 3.3697047877610000 54.6377252951880052 H
atom 0.9796598891440002 1.9952103280459998 59.5204042623119989 H
atom 0.3669470611000002 6.5000529035649999 61.4267876600280047 H
atom -0.2278455170480000 2.4204150550579997 60.7530825979560021 H
atom 2.3339340108319999 0.4310199376080000 60.1316952314400055 H
atom 2.5119095293879998 5.2525889708369995 41.9667465732479954 C
atom -1.2011415944079999 5.7379782343779997 47.4868243653720015 C
atom 2.8550498746240001 2.1165052057759999 43.4749851689159996 C
atom 4.0530684966079997 3.2794315993919998 41.5041480020160023 C
atom 5.3966762318520001 0.4785035912930000 47.0243277779520028 C
atom 1.3139881177600004 4.0898867955400000 43.9414591250040019 C
atom 0.0129031344000000 1.6503914848199999 48.9849665636520015 C
atom 0.0105903324200000 6.9097937994150005 49.4455254586439992 C
atom 2.5527754424519999 5.2706276962429994 52.9907887151999972 C
atom -1.1602741363000002 5.7560097269349999 58.5108665073239962 C
atom 2.8959223834480001 2.1345439311819998 54.4990273108680015 C
atom 4.0939410054319998 3.2974703247979997 52.5282921277799986 C
atom 5.4375487406760001 0.4965423166990000 58.0483699199040046 C
atom 1.3548621716279998 4.1079182880970002 54.9656032507679981 C
atom 0.0537690474640000 1.6684302102259998 60.0090087056039962 C
atom 0.0514577905279999 6.9278252919719998 60.4695676005960081 C
atom 2.7936316335039999 3.9597244449359996 41.3513762516399979 N
atom -1.4865050069640000 7.0287452340689995 46.8674766750960003 N
atom 2.5737172722240000 3.4097386069760001 44.0922931829519982 N
atom 1.4277319344680000 5.1835152628870000 42.9399780911640008 N
atom 3.9386826423839998 2.1850726142959997 42.5036913434280024 N
atom 5.5194154648720009 1.5777881465579999 48.0176501068320007 N
atom 1.8679185570360002 3.4227360366289998 40.4544286251000003 N
atom 0.9809572260079999 0.3324072743420000 45.9665516798879992 N
atom 3.4994173381720000 3.9465100298130000 44.9892408094920029 N
atom 0.2482102534120000 5.8399975695229998 42.6484063726559981 N
atom 1.0646134271840000 5.1499620763760001 48.1584897512040015 N
atom 5.1183053377599999 1.5287349646399999 42.7952630619359979 N
atom 0.2980181669960000 0.3595521566390000 49.6043142539280026 N
atom -0.1117644495999999 5.8108708866000001 48.4521011459519997 N
atom 4.4261269159040006 7.0558177878759993 50.5031995728960013 N
atom 4.3429211233279998 2.2386246282919999 48.3112615015799989 N
atom 2.8345056873720003 3.9777559374930003 52.3754183935919997 N
atom -1.4456390939000001 7.0467839594749995 57.8915188170480022 N
atom 2.6145847303320005 3.4277700995329998 55.1163353249040000 N
atom 1.4686044432920000 5.2015539882930000 53.9641222169279970 N
atom 3.9795485554479999 2.2031113397019997 53.5277334853800042 N
atom 5.5602895187400003 1.5958196391149999 59.0417942325960041 N
atom 1.9087844700999999 3.4407747620349998 51.4785727508639965 N
atom 1.0218246841159999 0.3504387668990000 56.9905938218400010 N
atom 3.5402847962800004 3.9645415223699998 56.0132829514439976 N
atom 0.2890761664760000 5.8580362949289997 53.6725504984200015 N
atom 1.1054808852920002 5.1679935689329994 59.1825318931559963 N
atom 5.1591778465839999 1.5467736900459998 53.8193052038879998 N
atom 0.3388856251040000 0.3775836491960000 60.6284583796919989 N
atom -0.0708985365360002 5.8289096120060000 59.4761432879040015 N
atom 4.4669928289680003 7.0738565132820002 61.5273436986599975 N
atom 4.3837870363920004 2.2566633536979999 59.3354056273440023 N
atom 0.8558396531160002 4.0964035924889997 40.2332257368720008 O
atom 0.4489385744479998 6.8929629597919995 45.7453487916599997 O
atom 4.5114406842160006 3.2727629126140001 45.2084040214799998 O
atom 2.1268398137280005 2.3103744903719998 39.9999887588279961 O
atom 0.7183061777840001 1.4430546353859999 45.5100721373759995 O
atom 3.2407005500399997 5.0588715760699996 45.4457203520039954 O
atom 0.2842636995440000 6.7720731216059997 41.8399806949320023 O
atom 1.0224259748720002 4.2138722930979995 47.3560811183880048 O
atom 5.0819927600680002 0.5962977701070000 43.6016490634199982 O
atom -0.7555637127560000 5.4546458405009997 43.2738730916519998 O
atom 6.1222424718840003 1.9143109119809998 42.1718360191799988 O
atom 3.3353689798480004 1.8528967911220000 47.6939534875440003 O
atom 4.9581301170240000 0.4953344309160000 50.7244024611240008 O
atom 4.6884146644520008 5.9450185370029995 50.9597810992200024 O
atom 4.3852382319200007 3.1747867400600001 49.1157098106359982 O
atom 2.0721320589880001 5.5355380237169998 48.7757977652400001 O
atom 0.8967071112240002 4.1144350850459999 51.2573698626360041 O
atom 0.4898060325560000 6.9109944523490006 56.7693909336120015 O
atom 4.5523065972800003 3.2908016380200000 56.2324461634320016 O
atom 2.1677057267920001 2.3284132157779998 51.0240309007799979 O
atom 0.7591720908480001 1.4610933607920000 56.5341142793279943 O
atom 3.2815664631039998 5.0769103014759995 56.4697624939560043 O
atom 0.3251296126080003 6.7901118470119997 52.8641248206959986 O
atom 1.0632918879360000 4.2319110185039994 58.3801232603399995 O
atom 5.1228668139360005 0.6143292626640000 54.6256912053720001 O
atom -0.7146962546480001 5.4726773330579999 54.2979152336040016 O
atom 6.1631083849480008 1.9323496373869999 53.1958781611320077 O
atom 3.3762348929120001 1.8709355165280002 58.7179956294960022 O
atom 4.9989960300880005 0.5133731563220000 61.7485465868879970 O
atom 4.7292805775160005 5.9630572624089995 61.9838232411720043 O
atom 4.4261041449839995 3.1928254654660000 60.1397519525880000 O
atom 2.1129979720519998 5.5535767491230006 59.7999418910039964 O
