#=======================================================
# FHI-aims file: output/HOJCOB.001.7.0.in
# Created using the Atomic Simulation Environment (ASE)
# Tue Feb 11 09:01:59 2020
#=======================================================
lattice_vector 6.5957600000000003 0.0000000000000000 0.0000000000000000 
lattice_vector -1.5450440000000001 7.2328489999999999 0.0000000000000000 
lattice_vector 0.0000000000000000 0.0000000000000000 157.1102510000000052 
atom 3.4398865281479996 5.5797307311069995 42.4513469304510025 H
atom 4.4688749295520003 5.4111257880680004 47.9755004658620052 H
atom 1.9266098086200001 1.7891536928850000 42.9943199579069955 H
atom 4.3627263347919998 2.8475871169980000 40.5470135780799978 H
atom 5.0806705950800009 0.9059143372500000 46.0670822469650005 H
atom 1.0053191005759998 4.5223822343440006 44.8986533102780001 H
atom 2.2269418455400003 6.0027945348150000 41.2225876573800036 H
atom -0.9194749776919999 4.9860584851869998 46.7428134365160020 H
atom 3.1407359533119998 1.3669505982079999 44.2189943644520014 H
atom 4.7919859257080004 4.0175076755969998 41.8340607542720022 H
atom 3.1144688926640010 6.9753161785059996 47.3641844792210023 H
atom 0.5746530778599999 3.3516660623550001 43.6136485673489958 H
atom 0.9387939760800001 1.9771716026399999 48.4963209479269963 H
atom 0.3260811480360002 6.4820141781589999 50.4026967335610010 H
atom -0.2687129751560001 2.4023835625009999 49.7290079772729996 H
atom 2.2930680977680002 0.4129812122020000 49.1076369345680064 H
atom 3.4807539862559995 5.5977622236639997 53.4754590226189990 H
atom 4.5097474383760003 5.4291645134740003 58.9996125580299946 H
atom 1.9674757216840002 1.8071924182910000 54.0184320500749990 H
atom 4.4035937929000006 2.8656186095550003 51.5711256702480014 H
atom 5.1215365081440005 0.9239530626560000 57.0911943391330041 H
atom 1.0461850136399997 4.5404209597500005 55.9227654024459966 H
atom 2.2678093036480007 6.0208260273719993 52.2466997495480001 H
atom -0.8786090646280001 5.0040972105930006 57.7667684184329957 H
atom 3.1816018663760000 1.3849893236139998 55.2431064566199979 H
atom 4.8328518387720010 4.0355464010029998 52.8580157361890031 H
atom 3.1553429465319995 6.9933476710629998 58.3881394611380031 H
atom 0.6155189909239999 3.3697047877610000 54.6377606595169993 H
atom 0.9796598891440002 1.9952103280459998 59.5204330400949999 H
atom 0.3669470611000002 6.5000529035649999 61.4268088257290046 H
atom -0.2278455170480000 2.4204150550579997 60.7531200694410032 H
atom 2.3339340108319999 0.4310199376080000 60.1317490267360029 H
atom 3.5216330908400009 5.6158009490699996 64.5014564377990069 H
atom 4.5506199472000004 5.4472032388800002 70.0256099732099955 H
atom 2.0083482305080000 1.8252311436969999 65.0444294652550070 H
atom 4.4444647566800004 2.8836645678099999 62.5971230854280023 H
atom 5.1624090169679997 0.9419917880619999 68.1171917543129979 H
atom 1.0870641182240000 4.5584596851560004 66.9489199278770002 H
atom 2.3086884082320003 6.0388647527780002 63.2728542749790037 H
atom -0.8377299600440001 5.0221359359990005 68.7929229438639993 H
atom 3.2224809709600004 1.4030280490200000 66.2691038717999987 H
atom 4.8737309433560005 4.0535851264089997 63.8841702616199996 H
atom 3.1962139103120002 7.0113936293179995 69.4142939865690067 H
atom 0.6563914997480000 3.3877435131670000 65.6639151849479958 H
atom 1.0205323979680001 2.0132490534519998 70.5464304552750008 H
atom 0.4078261656839999 6.5180916289709998 72.4528062409089983 H
atom -0.1869679575080001 2.4384610133130002 71.7792745948720068 H
atom 2.3748065196560000 0.4490586630140000 71.1577464419160037 H
atom 3.5624990039040001 5.6338396744759995 75.5255685299670034 H
atom 4.5914858602640001 5.4652419642860002 81.0497220653779920 H
atom 2.0492207393320001 1.8432698691029998 76.0685415574230035 H
atom 4.4853322147879995 2.9016960603670001 73.6212351775960059 H
atom 5.2032749300320003 0.9600305134679999 79.1413038464810086 H
atom 1.1279300312880001 4.5764984105620004 77.9728749097940010 H
atom 2.3495543212959999 6.0569034781840001 74.2969663671470073 H
atom -0.7968640469800001 5.0401746614050005 79.8170350360320100 H
atom 3.2633468840240005 1.4210667744259999 77.2932159639680094 H
atom 4.9145984014640005 4.0716166189659999 74.9082823537879960 H
atom 3.2370813684200006 7.0294251218750006 80.4384060787370032 H
atom 0.6972640085720000 3.4057822385729999 76.6880272771160065 H
atom 1.0614064518360000 2.0312805460090000 81.5705425474430115 H
atom 0.4486920787479999 6.5361303543769997 83.4769183330769948 H
atom -0.1461004994000000 2.4564925058700000 82.8032295767890076 H
atom 2.4156724327200001 0.4670973884200000 82.1818585340840002 H
atom 3.6033715127279997 5.6518783998819995 86.5517230553979999 H
atom 4.6323649648479996 5.4832806896920001 92.0758765908090027 H
atom 2.0900932481559997 1.8613085945089998 87.0946960828540000 H
atom 4.5262113193720008 2.9197347857730001 84.6473897030269882 H
atom 5.2441540346160007 0.9780692388740001 90.1674583719120051 H
atom 1.1688025401119999 4.5945371359680003 88.9990294352249975 H
atom 2.3904268301200005 6.0749422035900000 85.3229637823270082 H
atom -0.7559915381560001 5.0582133868110004 90.8430324512119967 H
atom 3.3042193928479997 1.4391054998320001 88.3193704893990059 H
atom 4.9554709102879997 4.0896553443719998 85.9342797689680111 H
atom 3.2779604730039997 7.0474638472810005 91.4644034939170041 H
atom 0.7381365173959999 3.4238209639789998 87.7140246922960074 H
atom 1.1022789606600001 2.0493192714149999 92.5966970728739938 H
atom 0.4895645875720003 6.5541690797829997 94.5030728585080055 H
atom -0.1052279905760000 2.4745312312759999 93.8293841022200041 H
atom 2.4565515373040001 0.4851361138260000 93.2080130595150109 H
atom 3.6442374257919998 5.6699171252880003 97.5758351475660106 H
atom 4.6732324229560005 5.5013121822489994 103.0998315727260035 H
atom 2.1309591612200003 1.8793473199149999 98.1188081750220107 H
atom 4.5670772324360005 2.9377735111790000 95.6713446849440032 H
atom 5.2850199476800004 0.9961079642800000 101.1915704640800016 H
atom 1.2096699982200001 4.6125686285249996 100.0231415273929940 H
atom 2.4312993389439996 6.0929809289960000 96.3470758744950047 H
atom -0.7151174842880000 5.0762448793679997 101.8671445433799931 H
atom 3.3450853059119998 1.4571442252380000 99.3434825815670024 H
atom 4.9963434191119998 4.1076940697779998 96.9583918611360076 H
atom 3.3188263860679998 7.0655025726870004 102.4885155860850006 H
atom 0.7790024304600000 3.4418596893849998 98.7381367844640039 H
atom 1.1431448737240002 2.0673579968209999 103.6208091650420045 H
atom 0.5304386414400000 6.5722005723399999 105.5271849506760162 H
atom -0.0643620775120000 2.4925699566819999 104.8534961943880006 H
atom 2.4974189954120005 0.5031676063830001 104.2321251516830074 H
atom 3.6851165303759998 5.6879558506940002 108.6018325627460115 H
atom 4.7141049317799997 5.5193509076549994 114.1259860981570142 H
atom 2.1718382658040003 1.8973860453209999 109.1448055902020116 H
atom 4.6079497412599997 2.9558122365849999 106.6974992103749997 H
atom 5.3258924565039996 1.0141466896860001 112.2175678792600024 H
atom 1.2505491028040003 4.6306073539309995 111.0492960528240047 H
atom 2.4721718477680001 6.1110196544019999 107.3732303999260012 H
atom -0.6742465205080000 5.0942908376230003 112.8932990688110038 H
atom 3.3859644104960007 1.4751829506440000 110.3694799967470033 H
atom 5.0372159279360007 4.1257327951840006 107.9845463865669899 H
atom 3.3596988948920004 7.0835412980930004 113.5146701115160113 H
atom 0.8198815350440001 3.4598984147909997 109.7642913098950004 H
atom 1.1840173825480000 2.0853967222269998 114.6468065802220053 H
atom 0.5713111502639999 6.5902392977459998 116.5531823658560029 H
atom -0.0234829729280000 2.5106086820879998 115.8794936095680015 H
atom 2.5382899591919998 0.5212135646379999 115.2581225668629941 H
atom 2.5119095293879998 5.2525889708369995 41.9666618061160079 C
atom -1.2011415944079999 5.7379782343779997 47.4867304750010035 C
atom 2.8550498746240001 2.1165052057759999 43.4749202157160042 C
atom 4.0530684966079997 3.2794315993919998 41.5041292271720010 C
atom 5.3966762318520001 0.4785035912930000 47.0243550063080065 C
atom 1.3139881177600004 4.0898867955400000 43.9415376611859969 C
atom 0.0129031344000000 1.6503914848199999 48.9849338285369953 C
atom 0.0105903324200000 6.9097937994150005 49.4454239742180022 C
atom 2.5527754424519999 5.2706276962429994 52.9907738982839973 C
atom -1.1602741363000002 5.7560097269349999 58.5108425671690000 C
atom 2.8959223834480001 2.1345439311819998 54.4990323078840078 C
atom 4.0939410054319998 3.2974703247979997 52.5282413193400046 C
atom 5.4375487406760001 0.4965423166990000 58.0483099882250002 C
atom 1.3548621716279998 4.1079182880970002 54.9654926431030049 C
atom 0.0537690474640000 1.6684302102259998 60.0090459207049989 C
atom 0.0514577905279999 6.9278252919719998 60.4695360663860058 C
atom 2.5936479512760000 5.2886664216490002 64.0169284237150009 C
atom -1.1194016274760001 5.7740484523409998 69.5369970926000036 C
atom 2.9367948922720002 2.1525826565879997 65.5251868333150043 C
atom 4.1348135142560007 3.3155090502040001 63.5543958447710082 C
atom 5.4784212495000002 0.5145810421050000 69.0744645136559967 C
atom 1.3957346804520001 4.1259570135030001 65.9916471685340014 C
atom 0.0946481520480000 1.6864689356320000 71.0352004461360025 C
atom 0.0923302993520000 6.9458640173779997 71.4956905918169952 C
atom 2.6345220051440004 5.3066979142059996 75.0410405158829974 C
atom -1.0785291186520001 5.7920871777469998 80.5611091847680001 C
atom 2.9776608053360003 2.1706213819939997 76.5491418152320051 C
atom 4.1756794273200004 3.3335477756100000 74.5785079369390047 C
atom 5.5192887076080002 0.5326125346620000 80.0985766058240074 C
atom 1.4366005935160002 4.1439957389090001 77.0157592607020121 C
atom 0.1355140651120000 1.7045076610380001 82.0591554280530033 C
atom 0.1331962124160000 6.9639027427839997 82.5198026839850058 C
atom 2.6753945139680000 5.3247366396119995 86.0670379310629983 C
atom -1.0376566098280000 5.8101259031530006 91.5871065999480010 C
atom 3.0185399099200003 2.1886601073999996 87.5752963406630158 C
atom 4.2165585319040000 3.3515865010160000 85.6045053521190056 C
atom 5.5601678121919997 0.5506512600680000 91.1245740210039941 C
atom 1.4774796981000000 4.1620344643150000 88.0417566758820129 C
atom 0.1763865739360000 1.7225463864440000 93.0853099534839998 C
atom 0.1740753170000002 6.9819414681899996 93.5458000991650067 C
atom 2.7162604270320001 5.3427753650179994 97.0911500232310090 C
atom -0.9967906967640001 5.8281646285590005 102.6112186921160117 C
atom 3.0594073680280003 2.2066915999569998 98.5994084328310123 C
atom 4.2574244449679997 3.3696252264219999 96.6286174442869878 C
atom 5.6010337252560003 0.5686899854740000 102.1486861131720048 C
atom 1.5183456111639997 4.1800731897209999 99.0658687680500094 C
atom 0.2172590827600000 1.7405851118500000 104.1094220456520105 C
atom 0.2149412300640002 6.9999801935959995 104.5699121913330032 C
atom 2.7571395316160006 5.3608140904239994 108.1173045486620055 C
atom -0.9559115921800001 5.8462033539650005 113.6373732175469939 C
atom 3.1002798768520003 2.2247303253629997 109.6254058480109990 C
atom 4.2982969537920006 3.3876639518279998 107.6547719697179986 C
atom 5.6419062340800004 0.5867287108800000 113.1748406386030013 C
atom 1.5592181199880004 4.1981119151269999 110.0920232934810059 C
atom 0.2581315915840000 1.7586238372559999 115.1354194608320114 C
atom 0.2558137388880001 7.0180189190019995 115.5960667167639997 C
atom 2.7936316335039999 3.9597244449359996 41.3514180632000006 N
atom -1.4865050069640000 7.0287452340689995 46.8674018655590032 N
atom 2.5737172722240000 3.4097386069760001 44.0923635021460001 N
atom 1.4277319344680000 5.1835152628870000 42.9399598110610086 N
atom 3.9386826423839998 2.1850726142959997 42.5036646440340036 N
atom 5.5194154648720009 1.5777881465579999 48.0177631233810018 N
atom 1.8679185570360002 3.4227360366289998 40.4544756402410073 N
atom 0.9809572260079999 0.3324072743420000 45.9665316863249984 N
atom 3.4994173381720000 3.9465100298130000 44.9891488148539977 N
atom 0.2482102534120000 5.8399975695229998 42.6483631852049996 N
atom 1.0646134271840000 5.1499620763760001 48.1585339082770005 N
atom 5.1183053377599999 1.5287349646399999 42.7952612698900055 N
atom 0.2980181669960000 0.3595521566390000 49.6044195482300054 N
atom -0.1117644495999999 5.8108708866000001 48.4520158571449997 N
atom 4.4261269159040006 7.0558177878759993 50.5032472942010031 N
atom 4.3429211233279998 2.2386246282919999 48.3112450722490081 N
atom 2.8345056873720003 3.9777559374930003 52.3753730451170085 N
atom -1.4456390939000001 7.0467839594749995 57.8915139577269997 N
atom 2.6145847303320005 3.4277700995329998 55.1163184840630009 N
atom 1.4686044432920000 5.2015539882930000 53.9640719032289979 N
atom 3.9795485554479999 2.2031113397019997 53.5277767362020001 N
atom 5.5602895187400003 1.5958196391149999 59.0417181052980027 N
atom 1.9087844700999999 3.4407747620349998 51.4785877324089967 N
atom 1.0218246841159999 0.3504387668990000 56.9906437784930020 N
atom 3.5402847962800004 3.9645415223699998 56.0132609070220013 N
atom 0.2890761664760000 5.8580362949289997 53.6724752773730032 N
atom 1.1054808852920002 5.1679935689329994 59.1824888901939943 N
atom 5.1591778465839999 1.5467736900459998 53.8193733620579948 N
atom 0.3388856251040000 0.3775836491960000 60.6283745301469992 N
atom -0.0708985365360002 5.8289096120060000 59.4761279493129962 N
atom 4.4669928289680003 7.0738565132820002 61.5273593863689996 N
atom 4.3837870363920004 2.2566633536979999 59.3353571644169975 N
atom 2.8753766511520000 3.9958018957480004 63.4015275705480050 N
atom -1.4047599893160001 7.0648226848810003 68.9176684831579962 N
atom 2.6554622898720002 3.4458160577879999 66.1424730094939974 N
atom 1.5094769521159999 5.2195927136989999 64.9902264286600087 N
atom 4.0204276600320004 2.2211500651079996 64.5537741513820009 N
atom 5.6011620275639995 1.6138583645209998 70.0678726307289992 N
atom 1.9496569789240001 3.4588134874409997 62.5045851475890046 N
atom 1.0626971929400002 0.3684774923050000 68.0166411936729958 N
atom 3.5811573051040000 3.9825802477759997 67.0394154324529978 N
atom 0.3299552710599999 5.8760750203349996 64.6986298028040068 N
atom 1.1463599898760000 5.1860322943389994 70.2086434156250050 N
atom 5.2000503554080000 1.5648124154520000 64.8453707772380028 N
atom 0.3797647296880000 0.3956223746019999 71.6545290555779957 N
atom -0.0300260277120000 5.8469483374119999 70.5022824747439927 N
atom 4.5078719335519999 7.0918952386880001 72.5533568015490005 N
atom 4.4246661409760000 2.2747020791039998 70.3615116898480011 N
atom 2.9162441092600004 4.0138333883049997 74.4256396627160086 N
atom -1.3638940762520000 7.0828614102870002 79.9416234650749971 N
atom 2.6963297479800001 3.4638475503450001 77.1665851016619939 N
atom 1.5503428651800000 5.2376314391049998 76.0143385208280051 N
atom 4.0612935730960000 2.2391887905139995 75.5778862435499974 N
atom 5.6420279406280001 1.6318970899270000 81.0919847228970099 N
atom 1.9905310327920003 3.4768449799979999 73.5286972397570082 N
atom 1.1035697017639998 0.3865162177110000 79.0407532858409922 N
atom 3.6220298139279996 4.0006189731820001 78.0633704143699987 N
atom 0.3708211841240001 5.8941137457409996 75.7227418949720033 N
atom 1.1872259029400001 5.2040710197449993 81.2327555077930015 N
atom 5.2409162684720005 1.5828511408579999 75.8694828694059993 N
atom 0.4206306427520000 0.4136611000080000 82.6786411477460064 N
atom 0.0108414303960001 5.8649798299689992 81.5263945669120034 N
atom 4.5487393916599999 7.1099267312450003 83.5774688937169969 N
atom 4.4655320540399996 2.2927408045099997 81.3856237820160118 N
atom 2.9571232138440000 4.0318721137109996 85.4516370778960095 N
atom -1.3230215674280001 7.1009001356930002 90.9677779905060078 N
atom 2.7372022568040006 3.4818862757510001 88.1925825168420090 N
atom 1.5912219697640002 5.2556701645109998 87.0403359360079918 N
atom 4.1021660819200001 2.2572275159199999 86.6040407689810081 N
atom 5.6829070452120005 1.6499358153329999 92.1179821380770107 N
atom 2.0314035416160001 3.4948837054039998 84.5548517651880047 N
atom 1.1444422105880001 0.4045549431170000 90.0669078112720030 N
atom 3.6629023227520001 4.0186576985880000 89.0895249398009952 N
atom 0.4116936929479998 5.9121524711469995 86.7487393101520041 N
atom 1.2280984117640004 5.2221097451509992 92.2587529229730166 N
atom 5.2817953730560001 1.6008898662640001 86.8956373948369958 N
atom 0.4615031515760000 0.4316998254140000 93.7046385629260072 N
atom 0.0517205349800000 5.8830185553749992 92.5523919820919900 N
atom 4.5896119004840008 7.1279654566510002 94.6036234191480077 N
atom 4.5064045628640006 2.3107795299159997 92.4116211971960126 N
atom 2.9979891269080001 4.0499108391170004 96.4757491700640060 N
atom -1.2821556543640000 7.1189388610990001 101.9918900826740042 N
atom 2.7780681698680003 3.4999250011570000 99.2166946090100055 N
atom 1.6320894278720000 5.2737016570680000 98.0644480281760025 N
atom 4.1430319949840007 2.2752662413260003 97.6279957508980090 N
atom 5.7237729582760002 1.6679745407390001 103.1420942302450072 N
atom 2.0722694546800002 3.5129224308100002 95.5789638573560012 N
atom 1.1853081236520000 0.4225936685230000 101.0910199034399994 N
atom 3.7037682358160007 4.0366964239940000 100.1136370319690059 N
atom 0.4525611510559999 5.9301839637039997 97.7728514023200006 N
atom 1.2689643248280000 5.2401484705570001 103.2828650151409988 N
atom 5.3226612861199998 1.6189285916700000 97.9195923767539966 N
atom 0.5023756604000000 0.4497385508200000 104.7287506550940037 N
atom 0.0925864480440000 5.9010572807810000 103.5765040742600007 N
atom 4.6304778135479996 7.1460041820570002 105.6277355113160041 N
atom 4.5472720209720006 2.3288110224729999 103.4357332893639949 N
atom 3.0388616357320002 4.0679495645230004 107.5019036954950025 N
atom -1.2412765497800000 7.1369775865050000 113.0178874978540051 N
atom 2.8189472744519999 3.5179637265629999 110.2428491344410020 N
atom 1.6729619366960002 5.2917403824739999 109.0906025536069990 N
atom 4.1839110995679993 2.2933049667320002 108.6541502763290055 N
atom 5.7646454671000003 1.6860132661450000 114.1682487556760037 N
atom 2.1131419635039999 3.5309611562160002 106.6049612725360021 N
atom 1.2261872282360000 0.4406323939290000 112.1170173186200145 N
atom 3.7446407446400003 4.0547351493999999 111.1396344471490067 N
atom 0.4934402556400000 5.9482226891099996 108.7990059277510113 N
atom 1.3098434294120000 5.2581871959630000 114.3090195405720095 N
atom 5.3635337949440007 1.6369673170760000 108.9457469021850073 N
atom 0.5432481692240001 0.4677772762260000 115.7549051805250002 N
atom 0.1334589568680002 5.9190960061869999 114.6026585996910114 N
atom 4.6713569181320000 7.1640429074630001 116.6537329264960050 N
atom 4.5881511255560001 2.3468497478789998 114.4618878147950056 N
atom 0.8558396531160002 4.0964035924889997 40.2332644068330012 O
atom 0.4489385744479998 6.8929629597919995 45.7453204529169994 O
atom 4.5114406842160006 3.2727629126140001 45.2083176149989967 O
atom 2.1268398137280005 2.3103744903719998 39.9999556840979977 O
atom 0.7183061777840001 1.4430546353859999 45.5099692969190031 O
atom 3.2407005500399997 5.0588715760699996 45.4457112042600073 O
atom 0.2842636995440000 6.7720731216059997 41.8400309438099995 O
atom 1.0224259748720002 4.2138722930979995 47.3560147461690022 O
atom 5.0819927600680002 0.5962977701070000 43.6015510780219984 O
atom -0.7555637127560000 5.4546458405009997 43.2738190944360070 O
atom 6.1222424718840003 1.9143109119809998 42.1718477939219980 O
atom 3.3353689798480004 1.8528967911220000 47.6939588960700007 O
atom 4.9581301170240000 0.4953344309160000 50.7244585276090021 O
atom 4.6884146644520008 5.9450185370029995 50.9596525733559957 O
atom 4.3852382319200007 3.1747867400600001 49.1156495573689966 O
atom 2.0721320589880001 5.5355380237169998 48.7758200844560008 O
atom 0.8967071112240002 4.1144350850459999 51.2573764990010048 O
atom 0.4898060325560000 6.9109944523490006 56.7694325450850030 O
atom 4.5523065972800003 3.2908016380200000 56.2324297071670003 O
atom 2.1677057267920001 2.3284132157779998 51.0240677762660013 O
atom 0.7591720908480001 1.4610933607920000 56.5340813890870066 O
atom 3.2815664631039998 5.0769103014759995 56.4698232964280038 O
atom 0.3251296126080003 6.7901118470119997 52.8641430359780031 O
atom 1.0632918879360000 4.2319110185039994 58.3801268383369987 O
atom 5.1228668139360005 0.6143292626640000 54.6256631701900019 O
atom -0.7146962546480001 5.4726773330579999 54.2979311866040035 O
atom 6.1631083849480008 1.9323496373869999 53.1959598860900016 O
atom 3.3762348929120001 1.8709355165280002 58.7180709882380043 O
atom 4.9989960300880005 0.5133731563220000 61.7485706197770057 O
atom 4.7292805775160005 5.9630572624089995 61.9837646655239993 O
atom 4.4261041449839995 3.1928254654660000 60.1397616495370002 O
atom 2.1129979720519998 5.5535767491230006 59.7999321766240044 O
atom 0.9375780750040001 4.1324810433009995 62.2833739141809986 O
atom 0.5306785413800001 6.9290331777550005 67.7954299602649968 O
atom 4.5931791061039995 3.3088403634260000 67.2585842325979968 O
atom 2.2085848313760001 2.3464519411839997 62.0502223016969978 O
atom 0.8000511954320000 1.4791320861980000 67.5602359145180031 O
atom 3.3224389719280003 5.0949490268819995 67.4958207116080047 O
atom 0.3660087171920000 6.8081505724179996 63.8901404511580040 O
atom 1.1041643967600001 4.2499497439099994 69.4062813637680023 O
atom 5.1637377777159994 0.6323752209190000 65.6518176956210056 O
atom -0.6738237458240001 5.4907160584639998 65.3240857120350000 O
atom -0.3917725104680000 1.9503883627929999 64.2219573012700096 O
atom 3.4171139974960001 1.8889742419340001 69.7440684034179981 O
atom 5.0398751346720001 0.5314118817279999 72.7745680349569994 O
atom 4.7701530863400006 5.9810959878149994 73.0099191909550029 O
atom 4.4669766538080005 3.2108641908719999 71.1659161749680038 O
atom 2.1538704808759999 5.5716154745290005 70.8259295918039982 O
atom 0.9784455331120001 4.1505125358579997 73.3074860063489950 O
atom 0.5715510502039999 6.9470719031610004 78.8195420524330075 O
atom 4.6340450191680000 3.3268790888319999 78.2826963247660075 O
atom 2.2494522894840006 2.3644834337409999 73.0741772836140058 O
atom 0.8409171084959999 1.4971708116040001 78.5843480066859996 O
atom 3.3633064300359998 5.1129805194389997 78.5199328037760012 O
atom 0.4068746302560000 6.8261892978239995 74.9142525433260005 O
atom 1.1450318548680003 4.2679812364670004 80.4303934559359988 O
atom 5.2046052358240003 0.6504067134760000 76.6759297877890020 O
atom -0.6329512370000001 5.5087547838699997 76.3480406939520009 O
atom -0.3509065974040000 1.9684270881989998 75.2460693934379918 O
atom 3.4579799105599998 1.9070129673400000 80.7681804955860088 O
atom 5.0807425927800001 0.5494433742850000 83.7986801271250101 O
atom 4.8110255951639997 5.9991347132209993 84.0340312831230136 O
atom 4.5078441119160004 3.2288956834290001 82.1898711568850047 O
atom 2.1947363939400000 5.5896541999350005 81.8500416839719946 O
atom 1.0193246376960003 4.1685512612639997 84.3336405317800057 O
atom 0.6124235590280001 6.9651106285670004 89.8456965778640040 O
atom 4.6749241237520005 3.3449178142379998 89.3086937399460083 O
atom 2.2903232532640003 2.3825293919959996 84.1003318090450023 O
atom 0.8817896173200001 1.5152095370100001 89.6103454218660147 O
atom 3.4041855346199998 5.1310192448449996 89.5460873292070119 O
atom 0.4477471390800001 6.8442280232299995 85.9404070687570112 O
atom 1.1859094144079998 4.2860271947220001 91.4563908711159996 O
atom 5.2454843404079998 0.6684454388820000 87.7019272029690029 O
atom -0.5920787281760000 5.5267935092759997 87.3741952193829974 O
atom -0.3100340885800000 1.9864658136049997 86.2722239188690025 O
atom 3.4988524193840003 1.9250516927460000 91.7943350210170053 O
atom 5.1216151016040010 0.5674820996909999 94.8248346525560066 O
atom 4.8518981039879998 6.0171734386269993 95.0600286983030003 O
atom 4.5487216714559997 3.2469416416839998 93.2160256823160012 O
atom 2.2356154985240000 5.6076929253410004 92.8761962094030054 O
atom 1.0601905507600000 4.1865899866699996 95.3577526239480164 O
atom 0.6532894720919998 6.9831493539730003 100.8698086700320147 O
atom 4.7157915818599996 3.3629493067950000 100.3328058321140048 O
atom 2.3311973071319998 2.4005608845529998 95.1244439012129988 O
atom 0.9226555303839998 1.5332482624160000 100.6344575140340112 O
atom 3.4450514476840004 5.1490579702509995 100.5700423111240127 O
atom 0.4886145971879998 6.8622595157869997 96.9645191609250077 O
atom 1.2267768725159998 4.3040586872790003 102.4805029632839961 O
atom 5.2863502534720004 0.6864841642880000 98.7260392951370136 O
atom -0.5512128151120002 5.5448322346820005 98.3983073115510081 O
atom -0.2691681755160001 2.0045045390110001 97.2963360110370132 O
atom 3.5397249282080008 1.9430904181519999 102.8182900029339919 O
atom 5.1624810146680007 0.5855208250970000 105.8489467447240031 O
atom 4.8927655620959998 6.0352049311840004 106.0841407904709968 O
atom 4.5895891295639997 3.2649731342410000 104.2401377744839976 O
atom 2.2764829566320000 5.6257244178979997 103.9003083015710160 O
atom 1.1010630595840003 4.2046287120759995 106.3837500391280031 O
atom 0.6941685766760000 7.0011880793790002 111.8958060852120013 O
atom 4.7566625456400002 3.3809952650499997 111.3589603575450013 O
atom 2.3720698159560003 2.4185996099589997 106.1505984266440095 O
atom 0.9635346349680000 1.5512869878219999 111.6606120394650077 O
atom 3.4859239565080000 5.1670966956569995 111.5961968365549950 O
atom 0.5294921567279999 6.8803054740420002 107.9905165761050085 O
atom 1.2676493813400003 4.3220974126850003 113.5066574887150068 O
atom 5.3272227622960004 0.7045228896940000 109.7521938205679959 O
atom -0.5103403062880001 5.5628709600880004 109.4243047267310089 O
atom -0.2282890709320000 2.0225432644170001 108.3223334262170141 O
atom 3.5805974370320000 1.9611291435579998 113.8444445283650026 O
atom 5.2033601192520003 0.6035595505029999 116.8749441599040040 O
atom 4.9336446666800002 6.0532436565900003 117.1102953159020075 O
atom 4.6304616383880006 3.2830118596469999 115.2661351896639985 O
atom 2.3173554654560005 5.6437631433039996 114.9263057167510027 O
