#=======================================================
# FHI-aims file: output/HOJCOB.001.1.0.in
# Created using the Atomic Simulation Environment (ASE)
# Tue Feb 11 09:01:59 2020
#=======================================================
lattice_vector 6.5957600000000003 0.0000000000000000 0.0000000000000000 
lattice_vector -1.5450440000000001 7.2328489999999999 0.0000000000000000 
lattice_vector 0.0000000000000000 0.0000000000000000 90.9597310000000050 
atom 3.4398865281479996 5.5797307311069995 42.4513612563549998 H
atom 4.4688749295520003 5.4111257880680004 47.9754366797160046 H
atom 1.9266098086200001 1.7891536928850000 42.9942998906940019 H
atom 4.3627263347919998 2.8475871169980000 40.5469373684080026 H
atom 5.0806705950800009 0.9059143372500000 46.0671015233360066 H
atom 1.0053191005759998 4.5223822343440006 44.8987237786410063 H
atom 2.2269418455400003 6.0027945348150000 41.2226772100070065 H
atom -0.9194749776919999 4.9860584851869998 46.7427504052040064 H
atom 3.1407359533119998 1.3669505982079999 44.2189817088780046 H
atom 4.7919859257080004 4.0175076755969998 41.8340175620580013 H
atom 3.1144688926640010 6.9753161785059996 47.3640963276650027 H
atom 0.5746530778599999 3.3516660623550001 43.6137356588040035 H
atom 0.9387939760800001 1.9771716026399999 48.4962720994220078 H
atom 0.3260811480360002 6.4820141781589999 50.4026971014510039 H
atom -0.2687129751560001 2.4023835625009999 49.7290493336649959 H
atom 2.2930680977680002 0.4129812122020000 49.1076124514730026 H
atom 2.5119095293879998 5.2525889708369995 41.9667278095869989 C
atom -1.2011415944079999 5.7379782343779997 47.4868010047839988 C
atom 2.8550498746240001 2.1165052057759999 43.4749311092980051 C
atom 4.0530684966079997 3.2794315993919998 41.5041975774519969 C
atom 5.3966762318520001 0.4785035912930000 47.0242707726489968 C
atom 1.3139881177600004 4.0898867955400000 43.9414635695970048 C
atom 0.0129031344000000 1.6503914848199999 48.9849987340850035 C
atom 0.0105903324200000 6.9097937994150005 49.4454368924070025 C
atom 2.7936316335039999 3.9597244449359996 41.3513852293720063 N
atom -1.4865050069640000 7.0287452340689995 46.8674561964050014 N
atom 2.5737172722240000 3.4097386069760001 44.0922748035950036 N
atom 1.4277319344680000 5.1835152628870000 42.9399969312870056 N
atom 3.9386826423839998 2.1850726142959997 42.5036631016799973 N
atom 5.5194154648720009 1.5777881465579999 48.0177329546310006 N
atom 1.8679185570360002 3.4227360366289998 40.4545222817120020 N
atom 0.9809572260079999 0.3324072743420000 45.9665000608500023 N
atom 3.4994173381720000 3.9465100298130000 44.9892287109860050 N
atom 0.2482102534120000 5.8399975695229998 42.6484709934320065 N
atom 1.0646134271840000 5.1499620763760001 48.1584476584880079 N
atom 5.1183053377599999 1.5287349646399999 42.7951890395350034 N
atom 0.2980181669960000 0.3595521566390000 49.6043435424640080 N
atom -0.1117644495999999 5.8108708866000001 48.4520656701560029 N
atom 4.4261269159040006 7.0558177878759993 50.5032076042060041 N
atom 4.3429211233279998 2.2386246282919999 48.3112600065680056 N
atom 0.8558396531160002 4.0964035924889997 40.2333082159200046 O
atom 0.4489385744479998 6.8929629597919995 45.7452859950579978 O
atom 4.5114406842160006 3.2727629126140001 45.2083507029649994 O
atom 2.1268398137280005 2.3103744903719998 39.9999965059050027 O
atom 0.7183061777840001 1.4430546353859999 45.5100641306920011 O
atom 3.2407005500399997 5.0588715760699996 45.4456646411440062 O
atom 0.2842636995440000 6.7720731216059997 41.8400209043040050 O
atom 1.0224259748720002 4.2138722930979995 47.3560918713370000 O
atom 5.0819927600680002 0.5962977701070000 43.6016380145810061 O
atom -0.7555637127560000 5.4546458405009997 43.2738191440570006 O
atom 6.1222424718840003 1.9143109119809998 42.1718420029920011 O
atom 3.3353689798480004 1.8528967911220000 47.6939163122709999 O
atom 4.9581301170240000 0.4953344309160000 50.7244216699980015 O
atom 4.6884146644520008 5.9450185370029995 50.9597344940950023 O
atom 4.3852382319200007 3.1747867400600001 49.1157078675320022 O
atom 2.0721320589880001 5.5355380237169998 48.7757913527850064 O
