#=======================================================
# FHI-aims file: output/HOJCOB.001.8.0.in
# Created using the Atomic Simulation Environment (ASE)
# Tue Feb 11 09:01:59 2020
#=======================================================
lattice_vector 6.5957600000000003 0.0000000000000000 0.0000000000000000 
lattice_vector -1.5450440000000001 7.2328489999999999 0.0000000000000000 
lattice_vector 0.0000000000000000 0.0000000000000000 168.1343329999999980 
atom 3.4398865281479996 5.5797307311069995 42.4513970675049990 H
atom 4.4688749295520003 5.4111257880680004 47.9754505782199985 H
atom 1.9266098086200001 1.7891536928850000 42.9943028287620024 H
atom 4.3627263347919998 2.8475871169980000 40.5469394776140035 H
atom 5.0806705950800009 0.9059143372500000 46.0671258986699996 H
atom 1.0053191005759998 4.5223822343440006 44.8987604186529978 H
atom 2.2269418455400003 6.0027945348150000 41.2226713619410035 H
atom -0.9194749776919999 4.9860584851869998 46.7426896486639976 H
atom 3.1407359533119998 1.3669505982079999 44.2189933103339996 H
atom 4.7919859257080004 4.0175076755969998 41.8340077967289972 H
atom 3.1144688926640010 6.9753161785059996 47.3641141434319977 H
atom 0.5746530778599999 3.3516660623550001 43.6137097115339998 H
atom 0.9387939760800001 1.9771716026399999 48.4963307418540026 H
atom 0.3260811480360002 6.4820141781589999 50.4026378094079988 H
atom -0.2687129751560001 2.4023835625009999 49.7290916714099964 H
atom 2.2930680977680002 0.4129812122020000 49.1076671766419963 H
atom 3.4807539862559995 5.5977622236639997 53.4754608793160031 H
atom 4.5097474383760003 5.4291645134740003 58.9995143900310026 H
atom 1.9674757216840002 1.8071924182910000 54.0183666405729994 H
atom 4.4035937929000006 2.8656186095550003 51.5710032894250006 H
atom 5.1215365081440005 0.9239530626560000 57.0911897104809967 H
atom 1.0461850136399997 4.5404209597500005 55.9228242304640020 H
atom 2.2678093036480007 6.0208260273719993 52.2467351737520005 H
atom -0.8786090646280001 5.0040972105930006 57.7667534604750017 H
atom 3.1816018663760000 1.3849893236139998 55.2430571221449966 H
atom 4.8328518387720010 4.0355464010029998 52.8580716085400013 H
atom 3.1553429465319995 6.9933476710629998 58.3881779552430018 H
atom 0.6155189909239999 3.3697047877610000 54.6377735233449968 H
atom 0.9796598891440002 1.9952103280459998 59.5203945536649996 H
atom 0.3669470611000002 6.5000529035649999 61.4267016212189958 H
atom -0.2278455170480000 2.4204150550579997 60.7531554832210006 H
atom 2.3339340108319999 0.4310199376080000 60.1317309884530005 H
atom 3.5216330908400009 5.6158009490699996 64.5015423031230029 H
atom 4.5506199472000004 5.4472032388800002 70.0255958138380095 H
atom 2.0083482305080000 1.8252311436969999 65.0444480643799920 H
atom 4.4444647566800004 2.8836645678099999 62.5970847132320003 H
atom 5.1624090169679997 0.9419917880619999 68.1172711342880035 H
atom 1.0870641182240000 4.5584596851560004 66.9489056542710017 H
atom 2.3086884082320003 6.0388647527780002 63.2728165975590002 H
atom -0.8377299600440001 5.0221359359990005 68.7930030186149963 H
atom 3.2224809709600004 1.4030280490200000 66.2691385459520035 H
atom 4.8737309433560005 4.0535851264089997 63.8841530323470010 H
atom 3.1962139103120002 7.0113936293179995 69.4142593790499944 H
atom 0.6563914997480000 3.3877435131670000 65.6638549471520037 H
atom 1.0205323979680001 2.0132490534519998 70.5464759774719994 H
atom 0.4078261656839999 6.5180916289709998 72.4529511793590046 H
atom -0.1869679575080001 2.4384610133130002 71.7792369070280074 H
atom 2.3748065196560000 0.4490586630140000 71.1578124122600002 H
atom 3.5624990039040001 5.6338396744759995 75.5256061149339928 H
atom 4.5914858602640001 5.4652419642860002 81.0496596256489994 H
atom 2.0492207393320001 1.8432698691029998 76.0685118761909962 H
atom 4.4853322147879995 2.9016960603670001 73.6213166593759922 H
atom 5.2032749300320003 0.9600305134679999 79.1413349460989934 H
atom 1.1279300312880001 4.5764984105620004 77.9729694660820059 H
atom 2.3495543212959999 6.0569034781840001 74.2968804093700044 H
atom -0.7968640469800001 5.0401746614050005 79.8170668304260005 H
atom 3.2633468840240005 1.4210667744259999 77.2932023577629934 H
atom 4.9145984014640005 4.0716166189659999 74.9082168441579910 H
atom 3.2370813684200006 7.0294251218750006 80.4383231908609986 H
atom 0.6972640085720000 3.4057822385729999 76.6879187589629936 H
atom 1.0614064518360000 2.0312805460090000 81.5705397892830035 H
atom 0.4486920787479999 6.5361303543769997 83.4770149911699946 H
atom -0.1461004994000000 2.4564925058700000 82.8033007188389973 H
atom 2.4156724327200001 0.4670973884200000 82.1818762240710043 H
atom 3.6033715127279997 5.6518783998819995 86.5516875387410067 H
atom 4.6323649648479996 5.4832806896920001 92.0757410494559991 H
atom 2.0900932481559997 1.8613085945089998 87.0945932999979959 H
atom 4.5262113193720008 2.9197347857730001 84.6473980831829920 H
atom 5.2441540346160007 0.9780692388740001 90.1674163699060074 H
atom 1.1688025401119999 4.5945371359680003 88.9990508898890056 H
atom 2.3904268301200005 6.0749422035900000 85.3229618331769899 H
atom -0.7559915381560001 5.0582133868110004 90.8431482542330002 H
atom 3.3042193928479997 1.4391054998320001 88.3192837815700074 H
atom 4.9554709102879997 4.0896553443719998 85.9342982679650049 H
atom 3.2779604730039997 7.0474638472810005 91.4644046146679983 H
atom 0.7381365173959999 3.4238209639789998 87.7140001827699933 H
atom 1.1022789606600001 2.0493192714149999 92.5966212130900033 H
atom 0.4895645875720003 6.5541690797829997 94.5030964149770085 H
atom -0.1052279905760000 2.4745312312759999 93.8293821426459971 H
atom 2.4565515373040001 0.4851361138260000 93.2079576478780041 H
atom 3.6442374257919998 5.6699171252880003 97.5757513505519967 H
atom 4.6732324229560005 5.5013121822489994 103.0999729955999982 H
atom 2.1309591612200003 1.8793473199149999 98.1188252461420092 H
atom 4.5670772324360005 2.9377735111790000 95.6714618949939961 H
atom 5.2850199476800004 0.9961079642800000 101.1914801817169973 H
atom 1.2096699982200001 4.6125686285249996 100.0231147016999955 H
atom 2.4312993389439996 6.0929809289960000 96.3470256449879940 H
atom -0.7151174842880000 5.0762448793679997 101.8672120660439901 H
atom 3.3450853059119998 1.4571442252380000 99.3433475933809973 H
atom 4.9963434191119998 4.1076940697779998 96.9583620797759949 H
atom 3.3188263860679998 7.0655025726870004 102.4886365608119974 H
atom 0.7790024304600000 3.4418596893849998 98.7380639945809975 H
atom 1.1431448737240002 2.0673579968209999 103.6206850249009932 H
atom 0.5304386414400000 6.5722005723399999 105.5271602267879985 H
atom -0.0643620775120000 2.4925699566819999 104.8534459544570012 H
atom 2.4974189954120005 0.5031676063830001 104.2320214596889940 H
atom 3.6851165303759998 5.6879558506940002 108.6018327743589964 H
atom 4.7141049317799997 5.5193509076549994 114.1260544194069979 H
atom 2.1718382658040003 1.8973860453209999 109.1449066699489947 H
atom 4.6079497412599997 2.9558122365849999 106.6975433188009958 H
atom 5.3258924565039996 1.0141466896860001 112.2175616055239971 H
atom 1.2505491028040003 4.6306073539309995 111.0491961255070095 H
atom 2.4721718477680001 6.1110196544019999 107.3731070687950080 H
atom -0.6742465205080000 5.0942908376230003 112.8932934898510041 H
atom 3.3859644104960007 1.4751829506440000 110.3695971515210061 H
atom 5.0372159279360007 4.1257327951840006 107.9844435035829946 H
atom 3.3596988948920004 7.0835412980930004 113.5147179846190113 H
atom 0.8198815350440001 3.4598984147909997 109.7641454183879972 H
atom 1.1840173825480000 2.0853967222269998 114.6467664487080071 H
atom 0.5713111502639999 6.5902392977459998 116.5532416505949982 H
atom -0.0234829729280000 2.5106086820879998 115.8795273782640010 H
atom 2.5382899591919998 0.5212135646379999 115.2581028834959938 H
atom 3.7259824434400004 5.7059945761000002 119.6258965861699863 H
atom 4.7549708448440002 5.5373896330609993 125.1501182312179878 H
atom 2.2127057239119998 1.9154175378780001 120.1689704817599988 H
atom 4.6488222500839997 2.9738509619909999 117.7216071306120000 H
atom 5.3667665103720008 1.0321781822430001 123.2416254173349870 H
atom 1.2914150158680000 4.6486460793369995 122.0732599373179994 H
atom 2.5130377608320003 6.1290583798079998 118.3973390149389928 H
atom -0.6333790624000001 5.1123223301799996 123.9173573016619940 H
atom 3.4268318686040002 1.4932144432009999 121.3936609633319961 H
atom 5.0780818410000004 4.1437715205900005 119.0086754497269936 H
atom 3.4005648079560009 7.1015800234990003 124.5387817964300012 H
atom 0.8607489931520000 3.4779299073479999 120.7883773645320105 H
atom 1.2248898913720001 2.1034354476329997 125.6708302605189971 H
atom 0.6121770633279999 6.6082780231519997 127.5773054624059881 H
atom 0.0173829401360000 2.5286474074939997 126.9035911900749909 H
atom 2.5791640130600002 0.5392450571949999 126.2821666953070121 H
atom 2.5119095293879998 5.2525889708369995 41.9666657854659988 C
atom -1.2011415944079999 5.7379782343779997 47.4868522065220020 C
atom 2.8550498746240001 2.1165052057759999 43.4749988868089972 C
atom 4.0530684966079997 3.2794315993919998 41.5041282353829999 C
atom 5.3966762318520001 0.4785035912930000 47.0243146564390031 C
atom 1.3139881177600004 4.0898867955400000 43.9414035265509995 C
atom 0.0129031344000000 1.6503914848199999 48.9849291135519991 C
atom 0.0105903324200000 6.9097937994150005 49.4454490516389953 C
atom 2.5527754424519999 5.2706276962429994 52.9907295972769958 C
atom -1.1602741363000002 5.7560097269349999 58.5109160183329990 C
atom 2.8959223834480001 2.1345439311819998 54.4990626986199942 C
atom 4.0939410054319998 3.2974703247979997 52.5283601815269989 C
atom 5.4375487406760001 0.4965423166990000 58.0483784682500001 C
atom 1.3548621716279998 4.1079182880970002 54.9656354726949985 C
atom 0.0537690474640000 1.6684302102259998 60.0089929253629961 C
atom 0.0514577905279999 6.9278252919719998 60.4695128634500065 C
atom 2.5936479512760000 5.2886664216490002 64.0168110210839956 C
atom -1.1194016274760001 5.7740484523409998 69.5369974421400059 C
atom 2.9367948922720002 2.1525826565879997 65.5251441224269939 C
atom 4.1348135142560007 3.3155090502040001 63.5544416053339987 C
atom 5.4784212495000002 0.5145810421050000 69.0744598920569928 C
atom 1.3957346804520001 4.1259570135030001 65.9917168965019982 C
atom 0.0946481520480000 1.6864689356320000 71.0350743491699887 C
atom 0.0923302993520000 6.9458640173779997 71.4955942872570063 C
atom 2.6345220051440004 5.3066979142059996 75.0410429672279946 C
atom -1.0785291186520001 5.7920871777469998 80.5610612539509958 C
atom 2.9776608053360003 2.1706213819939997 76.5492079342379981 C
atom 4.1756794273200004 3.3335477756100000 74.5785054171449957 C
atom 5.5192887076080002 0.5326125346620000 80.0985237038679969 C
atom 1.4366005935160002 4.1439957389090001 77.0157807083130024 C
atom 0.1355140651120000 1.7045076610380001 82.0593062953140020 C
atom 0.1331962124160000 6.9639027427839997 82.5196580990679962 C
atom 2.6753945139680000 5.3247366396119995 86.0671243910349943 C
atom -1.0376566098280000 5.8101259031530006 91.5871426777580098 C
atom 3.0185399099200003 2.1886601073999996 87.5752893580449978 C
atom 4.2165585319040000 3.3515865010160000 85.6045868409520097 C
atom 5.5601678121919997 0.5506512600680000 91.1246051276749967 C
atom 1.4774796981000000 4.1620344643150000 88.0418621321200021 C
atom 0.1763865739360000 1.7225463864440000 93.0853877191210017 C
atom 0.1740753170000002 6.9819414681899996 93.5459076572079908 C
atom 2.7162604270320001 5.3427753650179994 97.0911882028459985 C
atom -0.9967906967640001 5.8281646285590005 102.6112064895689997 C
atom 3.0594073680280003 2.2066915999569998 98.5993531698559877 C
atom 4.2574244449679997 3.3696252264219999 96.6286506527629996 C
atom 5.6010337252560003 0.5686899854740000 102.1486689394860008 C
atom 1.5183456111639997 4.1800731897209999 99.0659259439310063 C
atom 0.2172590827600000 1.7405851118500000 104.1094515309319917 C
atom 0.2149412300640002 6.9999801935959995 104.5699714690190092 C
atom 2.7571395316160006 5.3608140904239994 108.1172696266529982 C
atom -0.9559115921800001 5.8462033539650005 113.6372879133759994 C
atom 3.1002798768520003 2.2247303253629997 109.6254345936630017 C
atom 4.2982969537920006 3.3876639518279998 107.6547320765699993 C
atom 5.6419062340800004 0.5867287108800000 113.1747503632930005 C
atom 1.5592181199880004 4.1981119151269999 110.0920073677379918 C
atom 0.2581315915840000 1.7586238372559999 115.1355329547390056 C
atom 0.2558137388880001 7.0180189190019995 115.5960528928259947 C
atom 2.7980054446799998 5.3788528158300002 119.1413334384640024 C
atom -0.9150456791160001 5.8642420793710004 124.6613517251869894 C
atom 3.1411457899160009 2.2427690507690001 120.6494984054740058 C
atom 4.3391644118999997 3.4056954443849996 118.6787958883809893 C
atom 5.6827721471440000 0.6047674362859999 124.1988141751040047 C
atom 1.6000840330519996 4.2161506405329998 121.1160711795489959 C
atom 0.2989990496920001 1.7766553298129999 126.1595967665499956 C
atom 0.2966796519520001 7.0360576444079994 126.6201167046369989 C
atom 2.7936316335039999 3.9597244449359996 41.3512941266859997 N
atom -1.4865050069640000 7.0287452340689995 46.8674453237499975 N
atom 2.5737172722240000 3.4097386069760001 44.0922200232519970 N
atom 1.4277319344680000 5.1835152628870000 42.9399954392029954 N
atom 3.9386826423839998 2.1850726142959997 42.5036868450680032 N
atom 5.5194154648720009 1.5777881465579999 48.0176522958029963 N
atom 1.8679185570360002 3.4227360366289998 40.4544655944639970 N
atom 0.9809572260079999 0.3324072743420000 45.9665815675360037 N
atom 3.4994173381720000 3.9465100298130000 44.9892166898070016 N
atom 0.2482102534120000 5.8399975695229998 42.6484505057809997 N
atom 1.0646134271840000 5.1499620763760001 48.1583807325240016 N
atom 5.1183053377599999 1.5287349646399999 42.7952317784899989 N
atom 0.2980181669960000 0.3595521566390000 49.6043359963240036 N
atom -0.1117644495999999 5.8108708866000001 48.4521114122750021 N
atom 4.4261269159040006 7.0558177878759993 50.5031821405419947 N
atom 4.3429211233279998 2.2386246282919999 48.3112148412210018 N
atom 2.8345056873720003 3.9777559374930003 52.3755260728299987 N
atom -1.4456390939000001 7.0467839594749995 57.8915091355609945 N
atom 2.6145847303320005 3.4277700995329998 55.1164519693959960 N
atom 1.4686044432920000 5.2015539882930000 53.9640592510139996 N
atom 3.9795485554479999 2.2031113397019997 53.5277506568790002 N
atom 5.5602895187400003 1.5958196391149999 59.0417161076140005 N
atom 1.9087844700999999 3.4407747620349998 51.4785294062749941 N
atom 1.0218246841159999 0.3504387668990000 56.9906453793470007 N
atom 3.5402847962800004 3.9645415223699998 56.0132805016179987 N
atom 0.2890761664760000 5.8580362949289997 53.6725143175920039 N
atom 1.1054808852920002 5.1679935689329994 59.1826126786679936 N
atom 5.1591778465839999 1.5467736900459998 53.8192955903010031 N
atom 0.3388856251040000 0.3775836491960000 60.6283998081350006 N
atom -0.0708985365360002 5.8289096120060000 59.4761752240859991 N
atom 4.4669928289680003 7.0738565132820002 61.5272459523529989 N
atom 4.3837870363920004 2.2566633536979999 59.3354467873650009 N
atom 2.8753766511520000 3.9958018957480004 63.4016074966369985 N
atom -1.4047599893160001 7.0648226848810003 68.9175905593679943 N
atom 2.6554622898720002 3.4458160577879999 66.1425333932029957 N
atom 1.5094769521159999 5.2195927136989999 64.9901406748210064 N
atom 4.0204276600320004 2.2211500651079996 64.5538320806860071 N
atom 5.6011620275639995 1.6138583645209998 70.0677975314210073 N
atom 1.9496569789240001 3.4588134874409997 62.5046108300819938 N
atom 1.0626971929400002 0.3684774923050000 68.0167268031540004 N
atom 3.5811573051040000 3.9825802477759997 67.0393619254249984 N
atom 0.3299552710599999 5.8760750203349996 64.6985957413990036 N
atom 1.1463599898760000 5.1860322943389994 70.2086941024749933 N
atom 5.2000503554080000 1.5648124154520000 64.8453770141079957 N
atom 0.3797647296880000 0.3956223746019999 71.6544812319420004 N
atom -0.0300260277120000 5.8469483374119999 70.5022566478930059 N
atom 4.5078719335519999 7.0918952386880001 72.5534955104929935 N
atom 4.4246661409760000 2.2747020791039998 70.3615282111720006 N
atom 2.9162441092600004 4.0138333883049997 74.4256713084480026 N
atom -1.3638940762520000 7.0828614102870002 79.9416543711789984 N
atom 2.6963297479800001 3.4638475503450001 77.1665972050139999 N
atom 1.5503428651800000 5.2376314391049998 76.0142044866319964 N
atom 4.0612935730960000 2.2391887905139995 75.5778958924969970 N
atom 5.6420279406280001 1.6318970899270000 81.0920294775649921 N
atom 1.9905310327920003 3.4768449799979999 73.5286746418930051 N
atom 1.1035697017639998 0.3865162177110000 79.0407906149650046 N
atom 3.6220298139279996 4.0006189731820001 78.0634257372360025 N
atom 0.3708211841240001 5.8941137457409996 75.7226595532099935 N
atom 1.1872259029400001 5.2040710197449993 81.2327579142859975 N
atom 5.2409162684720005 1.5828511408579999 75.8694408259189998 N
atom 0.4206306427520000 0.4136611000080000 82.6785450437529903 N
atom 0.0108414303960001 5.8649798299689992 81.5263204597039959 N
atom 4.5487393916599999 7.1099267312450003 83.5775593223039976 N
atom 4.4655320540399996 2.2927408045099997 81.3855920229830048 N
atom 2.9571232138440000 4.0318721137109996 85.4517527322550023 N
atom -1.3230215674280001 7.1009001356930002 90.9677357949859982 N
atom 2.7372022568040006 3.4818862757510001 88.1926786288209996 N
atom 1.5912219697640002 5.2556701645109998 87.0404540447720052 N
atom 4.1021660819200001 2.2572275159199999 86.6039773163039968 N
atom 5.6829070452120005 1.6499358153329999 92.1181109013720061 N
atom 2.0314035416160001 3.4948837054039998 84.5547560657000048 N
atom 1.1444422105880001 0.4045549431170000 90.0668720387720043 N
atom 3.6629023227520001 4.0186576985880000 89.0895071610430023 N
atom 0.4116936929479998 5.9121524711469995 86.7487409770169933 N
atom 1.2280984117640004 5.2221097451509992 92.2588393380929972 N
atom 5.2817953730560001 1.6008898662640001 86.8955222497259996 N
atom 0.4615031515760000 0.4316998254140000 93.7046264675600042 N
atom 0.0517205349800000 5.8830185553749992 92.5524018835110098 N
atom 4.5896119004840008 7.1279654566510002 94.6036407461109974 N
atom 4.5064045628640006 2.3107795299159997 92.4116734467899903 N
atom 2.9979891269080001 4.0499108391170004 96.4758165440660065 N
atom -1.2821556543640000 7.1189388610990001 101.9917996067969881 N
atom 2.7780681698680003 3.4999250011570000 99.2167424406319896 N
atom 1.6320894278720000 5.2737016570680000 98.0645178565829951 N
atom 4.1430319949840007 2.2752662413260003 97.6280411281150009 N
atom 5.7237729582760002 1.6679745407390001 103.1421747131829960 N
atom 2.0722694546800002 3.5129224308100002 95.5789880118439896 N
atom 1.1853081236520000 0.4225936685230000 101.0909358505829942 N
atom 3.7037682358160007 4.0366964239940000 100.1135709728540064 N
atom 0.4525611510559999 5.9301839637039997 97.7728047888279974 N
atom 1.2689643248280000 5.2401484705570001 103.2829031499039871 N
atom 5.3226612861199998 1.6189285916700000 97.9195860615370037 N
atom 0.5023756604000000 0.4497385508200000 104.7286902793709942 N
atom 0.0925864480440000 5.9010572807810000 103.5764656953219998 N
atom 4.6304778135479996 7.1460041820570002 105.6277045579219873 N
atom 4.5472720209720006 2.3288110224729999 103.4357372586009944 N
atom 3.0388616357320002 4.0679495645230004 107.5018979678729920 N
atom -1.2412765497800000 7.1369775865050000 113.0178810306040020 N
atom 2.8189472744519999 3.5179637265629999 110.2428238644390035 N
atom 1.6729619366960002 5.2917403824739999 109.0905992803899949 N
atom 4.1839110995679993 2.2933049667320002 108.6541225519220006 N
atom 5.7646454671000003 1.6860132661450000 114.1682561369899958 N
atom 2.1131419635039999 3.5309611562160002 106.6050694356510036 N
atom 1.2261872282360000 0.4406323939290000 112.1170172743900082 N
atom 3.7446407446400003 4.0547351493999999 111.1396523966609919 N
atom 0.4934402556400000 5.9482226891099996 108.7988862126349972 N
atom 1.3098434294120000 5.2581871959630000 114.3089845737110011 N
atom 5.3635337949440007 1.6369673170760000 108.9458356196769984 N
atom 0.5432481692240001 0.4677772762260000 115.7549398375110030 N
atom 0.1334589568680002 5.9190960061869999 114.6025471191289995 N
atom 4.6713569181320000 7.1640429074630001 116.6537859817290013 N
atom 4.5881511255560001 2.3468497478789998 114.4618186824080084 N
atom 3.0797275487960003 4.0859882899290003 118.5259617796839962 N
atom -1.2004090916720001 7.1550090790619993 124.0421129767479869 N
atom 2.8598131875160000 3.5360024519689999 121.2668876762499934 N
atom 1.7138278497600004 5.3097791078799998 120.1146630922009848 N
atom 4.2247785576759993 2.3113364592890000 119.6781863637330048 N
atom 5.8055113801640008 1.7040519915510000 125.1923199488009857 N
atom 2.1540144723279999 3.5489998816220001 117.6291332474619935 N
atom 1.2670531412999999 0.4586711193350000 123.1410810862009981 N
atom 3.7855132534639999 4.0727738748059998 122.1637162084719961 N
atom 0.5343061687040001 5.9662614145159996 119.8231181587790104 N
atom 1.3507108875199998 5.2762186885200002 125.3330483855220052 N
atom 5.4044012530519998 1.6549988096329999 119.9698994314879883 N
atom 0.5841140822880000 0.4858160016320000 126.7790036493219930 N
atom 0.1743248699319999 5.9371347315929999 125.6266109309399894 N
atom 4.7122228311960006 7.1820816328690000 127.6778497935400054 N
atom 4.6290170386199998 2.3648884732850002 125.4858824942189983 N
atom 0.8558396531160002 4.0964035924889997 40.2332008122359994 O
atom 0.4489385744479998 6.8929629597919995 45.7453167853079989 O
atom 4.5114406842160006 3.2727629126140001 45.2084638600389965 O
atom 2.1268398137280005 2.3103744903719998 39.9999984923650018 O
atom 0.7183061777840001 1.4430546353859999 45.5100968534409986 O
atom 3.2407005500399997 5.0588715760699996 45.4457014039019924 O
atom 0.2842636995440000 6.7720731216059997 41.8400606327169982 O
atom 1.0224259748720002 4.2138722930979995 47.3560436954480011 O
atom 5.0819927600680002 0.5962977701070000 43.6016040395579978 O
atom -0.7555637127560000 5.4546458405009997 43.2739102245410052 O
atom 6.1222424718840003 1.9143109119809998 42.1717896717259961 O
atom 3.3353689798480004 1.8528967911220000 47.6939937047779949 O
atom 4.9581301170240000 0.4953344309160000 50.7244469227699994 O
atom 4.6884146644520008 5.9450185370029995 50.9596668546369997 O
atom 4.3852382319200007 3.1747867400600001 49.1157376246260000 O
atom 2.0721320589880001 5.5355380237169998 48.7757700033000035 O
atom 0.8967071112240002 4.1144350850459999 51.2574327583800056 O
atom 0.4898060325560000 6.9109944523490006 56.7693805971190031 O
atom 4.5523065972800003 3.2908016380200000 56.2325276718500007 O
atom 2.1677057267920001 2.3284132157779998 51.0240623041760060 O
atom 0.7591720908480001 1.4610933607920000 56.5341606652519957 O
atom 3.2815664631039998 5.0769103014759995 56.4697652157130037 O
atom 0.3251296126080003 6.7901118470119997 52.8641244445279952 O
atom 1.0632918879360000 4.2319110185039994 58.3801075072589981 O
atom 5.1228668139360005 0.6143292626640000 54.6256678513689948 O
atom -0.7146962546480001 5.4726773330579999 54.2979740363520023 O
atom 6.1631083849480008 1.9323496373869999 53.1958534835369932 O
atom 3.3762348929120001 1.8709355165280002 58.7180575165889991 O
atom 4.9989960300880005 0.5133731563220000 61.7485107345809965 O
atom 4.7292805775160005 5.9630572624089995 61.9837306664479968 O
atom 4.4261041449839995 3.1928254654660000 60.1398014364369971 O
atom 2.1129979720519998 5.5535767491230006 59.7998338151110005 O
atom 0.9375780750040001 4.1324810433009995 62.2835141821870053 O
atom 0.5306785413800001 6.9290331777550005 67.7954620209260099 O
atom 4.5931791061039995 3.3088403634260000 67.2586090956570075 O
atom 2.2085848313760001 2.3464519411839997 62.0501437279830057 O
atom 0.8000511954320000 1.4791320861980000 67.5602420890590025 O
atom 3.3224389719280003 5.0949490268819995 67.4958466395199963 O
atom 0.3660087171920000 6.8081505724179996 63.8902058683350020 O
atom 1.1041643967600001 4.2499497439099994 69.4061889310659978 O
atom 5.1637377777159994 0.6323752209190000 65.6517492751760017 O
atom -0.6738237458240001 5.4907160584639998 65.3240554601590020 O
atom -0.3917725104680000 1.9503883627929999 64.2219349073439929 O
atom 3.4171139974960001 1.8889742419340001 69.7441389403959988 O
atom 5.0398751346720001 0.5314118817279999 72.7745921583880033 O
atom 4.7701530863400006 5.9810959878149994 73.0099802245880056 O
atom 4.4669766538080005 3.2108641908719999 71.1658828602439968 O
atom 2.1538704808759999 5.5716154745290005 70.8260833732509951 O
atom 0.9784455331120001 4.1505125358579997 73.3075779939979952 O
atom 0.5715510502039999 6.9470719031610004 78.8195258327369999 O
atom 4.6340450191680000 3.3268790888319999 78.2826729074679974 O
atom 2.2494522894840006 2.3644834337409999 73.0742075397940027 O
atom 0.8409171084959999 1.4971708116040001 78.5843059008700067 O
atom 3.3633064300359998 5.1129805194389997 78.5199104513310004 O
atom 0.4068746302560000 6.8261892978239995 74.9142696801460062 O
atom 1.1450318548680003 4.2679812364670004 80.4304208772099969 O
atom 5.2046052358240003 0.6504067134760000 76.6758130869870058 O
atom -0.6329512370000001 5.5087547838699997 76.3481192719699919 O
atom -0.3509065974040000 1.9684270881989998 75.2461668534879919 O
atom 3.4579799105599998 1.9070129673400000 80.7682027522070030 O
atom 5.0807425927800001 0.5494433742850000 83.7986559701989933 O
atom 4.8110255951639997 5.9991347132209993 84.0340440363989956 O
atom 4.5078441119160004 3.2288956834290001 82.1899466720550009 O
atom 2.1947363939400000 5.5896541999350005 81.8501471850619993 O
atom 1.0193246376960003 4.1685512612639997 84.3336594178049950 O
atom 0.6124235590280001 6.9651106285670004 89.8456072565439854 O
atom 4.6749241237520005 3.3449178142379998 89.3087543312749972 O
atom 2.2903232532640003 2.3825293919959996 84.1002889636010025 O
atom 0.8817896173200001 1.5152095370100001 89.6103873246770064 O
atom 3.4041855346199998 5.1310192448449996 89.5459918751380002 O
atom 0.4477471390800001 6.8442280232299995 85.9403511039529917 O
atom 1.1859094144079998 4.2860271947220001 91.4565023010169966 O
atom 5.2454843404079998 0.6684454388820000 87.7018945107940056 O
atom -0.5920787281760000 5.5267935092759997 87.3742006957770059 O
atom -0.3100340885800000 1.9864658136049997 86.2722482772949917 O
atom 3.4988524193840003 1.9250516927460000 91.7942841760140027 O
atom 5.1216151016040010 0.5674820996909999 94.8247373940059930 O
atom 4.8518981039879998 6.0171734386269993 95.0601254602060095 O
atom 4.5487216714559997 3.2469416416839998 93.2160280958619865 O
atom 2.2356154985240000 5.6076929253410004 92.8762286088689990 O
atom 1.0601905507600000 4.1865899866699996 95.3577232296159991 O
atom 0.6532894720919998 6.9831493539730003 100.8696710683550037 O
atom 4.7157915818599996 3.3629493067950000 100.3328181430860013 O
atom 2.3311973071319998 2.4005608845529998 95.1243527754120066 O
atom 0.9226555303839998 1.5332482624160000 100.6344511364879963 O
atom 3.4450514476840004 5.1490579702509995 100.5700556869490043 O
atom 0.4886145971879998 6.8622595157869997 96.9644149157639959 O
atom 1.2267768725159998 4.3040586872790003 102.4805661128279866 O
atom 5.2863502534720004 0.6864841642880000 98.7261264569379904 O
atom -0.5512128151120002 5.5448322346820005 98.3982645075879958 O
atom -0.2691681755160001 2.0045045390110001 97.2963120891060100 O
atom 3.5397249282080008 1.9430904181519999 102.8183479878249926 O
atom 5.1624810146680007 0.5855208250970000 105.8488012058169971 O
atom 4.8927655620959998 6.0352049311840004 106.0841892720169994 O
atom 4.5895891295639997 3.2649731342410000 104.2400919076730048 O
atom 2.2764829566320000 5.6257244178979997 103.9002924206799889 O
atom 1.1010630595840003 4.2046287120759995 106.3838046534230131 O
atom 0.6941685766760000 7.0011880793790002 111.8957524921620035 O
atom 4.7566625456400002 3.3809952650499997 111.3588995668930011 O
atom 2.3720698159560003 2.4185996099589997 106.1506023335520013 O
atom 0.9635346349680000 1.5512869878219999 111.6605325602949961 O
atom 3.4859239565080000 5.1670966956569995 111.5961371107559899 O
atom 0.5294921567279999 6.8803054740420002 107.9904963395710098 O
atom 1.2676493813400003 4.3220974126850003 113.5066475366350005 O
atom 5.3272227622960004 0.7045228896940000 109.7522078807450043 O
atom -0.5103403062880001 5.5628709600880004 109.4243459313950098 O
atom -0.2282890709320000 2.0225432644170001 108.3223935129129956 O
atom 3.5805974370320000 1.9611291435579998 113.8444294116320066 O
atom 5.2033601192520003 0.6035595505029999 116.8750507639569918 O
atom 4.9336446666800002 6.0532436565900003 117.1102706958239992 O
atom 4.6304616383880006 3.2830118596469999 115.2661733314799903 O
atom 2.3173554654560005 5.6437631433039996 114.9263738444870029 O
atom 1.1419355684079999 4.2226674374819995 117.4078684652339888 O
atom 0.7350344897400002 7.0192268047850002 122.9199844383060025 O
atom 4.7975300037480002 3.3990267576069999 122.3829633787039910 O
atom 2.4129357290200000 2.4366383353650001 117.1746661453629912 O
atom 1.0044020930760000 1.5693184803789999 122.6845963721060144 O
atom 3.5267898695720001 5.1851354210630003 122.6202009225670082 O
atom 0.5703596148360000 6.8983369665990004 119.0145601513819997 O
atom 1.3085152944039997 4.3401361380910002 124.5307113484460046 O
atom 5.3680886753600001 0.7225616151000001 120.7762716925559943 O
atom -0.4694677974640000 5.5809096854940003 120.4484097432059855 O
atom -0.1874216128240000 2.0405747569739998 119.3464573247239997 O
atom 3.6214648951399999 1.9791606361150000 124.8684932234429965 O
atom 5.2442260323159999 0.6215982759090000 127.8991145757680101 O
atom 4.9745105797440008 6.0712823819960002 128.1343345076350033 O
atom 4.6713341472120007 3.3010505850529999 126.2902371432909945 O
atom 2.3582279742800005 5.6618018687099996 125.9504376562980070 O
