#=======================================================
# FHI-aims file: output/HOJCOB.001.5.0.in
# Created using the Atomic Simulation Environment (ASE)
# Tue Feb 11 09:01:59 2020
#=======================================================
lattice_vector 6.5957600000000003 0.0000000000000000 0.0000000000000000 
lattice_vector -1.5450440000000001 7.2328489999999999 0.0000000000000000 
lattice_vector 0.0000000000000000 0.0000000000000000 135.0600780000000043 
atom 3.4398865281479996 5.5797307311069995 42.4514084165700041 H
atom 4.4688749295520003 5.4111257880680004 47.9755006668479993 H
atom 1.9266098086200001 1.7891536928850000 42.9943499301299994 H
atom 4.3627263347919998 2.8475871169980000 40.5469262566919966 H
atom 5.0806705950800009 0.9059143372500000 46.0671017647079992 H
atom 1.0053191005759998 4.5223822343440006 44.8986970299299983 H
atom 2.2269418455400003 6.0027945348150000 41.2226318269260048 H
atom -0.9194749776919999 4.9860584851869998 46.7428073349420004 H
atom 3.1407359533119998 1.3669505982079999 44.2189396573560032 H
atom 4.7919859257080004 4.0175076755969998 41.8340488000320008 H
atom 3.1144688926640010 6.9753161785059996 47.3640836937419962 H
atom 0.5746530778599999 3.3516660623550001 43.6137354478380033 H
atom 0.9387939760800001 1.9771716026399999 48.4962923276160041 H
atom 0.3260811480360002 6.4820141781589999 50.4026653285860036 H
atom -0.2687129751560001 2.4023835625009999 49.7289856595220030 H
atom 2.2930680977680002 0.4129812122020000 49.1075742406439986 H
atom 3.4807539862559995 5.5977622236639997 53.4754171631640034 H
atom 4.5097474383760003 5.4291645134740003 58.9995094134419986 H
atom 1.9674757216840002 1.8071924182910000 54.0183586767239987 H
atom 4.4035937929000006 2.8656186095550003 51.5710700633640045 H
atom 5.1215365081440005 0.9239530626560000 57.0911105113019985 H
atom 1.0461850136399997 4.5404209597500005 55.9228408366020062 H
atom 2.2678093036480007 6.0208260273719993 52.2467756335979985 H
atom -0.8786090646280001 5.0040972105930006 57.7668160815359997 H
atom 3.1816018663760000 1.3849893236139998 55.2430834640280040 H
atom 4.8328518387720010 4.0355464010029998 52.8580575466260072 H
atom 3.1553429465319995 6.9933476710629998 58.3882275004140041 H
atom 0.6155189909239999 3.3697047877610000 54.6377441944320026 H
atom 0.9796598891440002 1.9952103280459998 59.5204361342879977 H
atom 0.3669470611000002 6.5000529035649999 61.4268091352580043 H
atom -0.2278455170480000 2.4204150550579997 60.7531294661939967 H
atom 2.3339340108319999 0.4310199376080000 60.1317180473159993 H
atom 3.5216330908400009 5.6158009490699996 64.5015868710059976 H
atom 4.5506199472000004 5.4472032388800002 70.0256791212840000 H
atom 2.0083482305080000 1.8252311436969999 65.0445283845660072 H
atom 4.4444647566800004 2.8836645678099999 62.5971047111280043 H
atom 5.1624090169679997 0.9419917880619999 68.1172802191440070 H
atom 1.0870641182240000 4.5584596851560004 66.9488754843659990 H
atom 2.3086884082320003 6.0388647527780002 63.2728102813619984 H
atom -0.8377299600440001 5.0221359359990005 68.7929857893780081 H
atom 3.2224809709600004 1.4030280490200000 66.2691181117919967 H
atom 4.8737309433560005 4.0535851264089997 63.8842272544680014 H
atom 3.1962139103120002 7.0113936293179995 69.4142621481780111 H
atom 0.6563914997480000 3.3877435131670000 65.6639139022740039 H
atom 1.0205323979680001 2.0132490534519998 70.5464707820519976 H
atom 0.4078261656839999 6.5180916289709998 72.4528437830219900 H
atom -0.1869679575080001 2.4384610133130002 71.7791641139580037 H
atom 2.3748065196560000 0.4490586630140000 71.1577526950800063 H
atom 3.5624990039040001 5.6338396744759995 75.5255956176000041 H
atom 4.5914858602640001 5.4652419642860002 81.0496878678780064 H
atom 2.0492207393320001 1.8432698691029998 76.0685371311600136 H
atom 4.4853322147879995 2.9016960603670001 73.6212485178000122 H
atom 5.2032749300320003 0.9600305134679999 79.1412889657379992 H
atom 1.1279300312880001 4.5764984105620004 77.9730192910379998 H
atom 2.3495543212959999 6.0569034781840001 74.2969540880339991 H
atom -0.7968640469800001 5.0401746614050005 79.8169945359720003 H
atom 3.2633468840240005 1.4210667744259999 77.2932619184640117 H
atom 4.9145984014640005 4.0716166189659999 74.9082360010620079 H
atom 3.2370813684200006 7.0294251218750006 80.4384059548499977 H
atom 0.6972640085720000 3.4057822385729999 76.6879226488680104 H
atom 1.0614064518360000 2.0312805460090000 81.5706145887239984 H
atom 0.4486920787479999 6.5361303543769997 83.4769875896940050 H
atom -0.1461004994000000 2.4564925058700000 82.8033079206300044 H
atom 2.4156724327200001 0.4670973884200000 82.1818965017520071 H
atom 3.6033715127279997 5.6518783998819995 86.5517653254420054 H
atom 4.6323649648479996 5.4832806896920001 92.0758575757200077 H
atom 2.0900932481559997 1.8613085945089998 87.0947068390020007 H
atom 4.5262113193720008 2.9197347857730001 84.6472831655640050 H
atom 5.2441540346160007 0.9780692388740001 90.1674586735800148 H
atom 1.1688025401119999 4.5945371359680003 88.9990539388019926 H
atom 2.3904268301200005 6.0749422035900000 85.3229887357980061 H
atom -0.7559915381560001 5.0582133868110004 90.8430291837360073 H
atom 3.3042193928479997 1.4391054998320001 88.3192965662280045 H
atom 4.9554709102879997 4.0896553443719998 85.9344057089039950 H
atom 3.2779604730039997 7.0474638472810005 91.4644406026139904 H
atom 0.7381365173959999 3.4238209639789998 87.7140923567100117 H
atom 1.1022789606600001 2.0493192714149999 92.5966492364880054 H
atom 0.4895645875720003 6.5541690797829997 94.5030222374579978 H
atom -0.1052279905760000 2.4745312312759999 93.8293425683939972 H
atom 2.4565515373040001 0.4851361138260000 93.2079311495159999 H
atom 2.5119095293879998 5.2525889708369995 41.9666777966280051 C
atom -1.2011415944079999 5.7379782343779997 47.4868533046440078 C
atom 2.8550498746240001 2.1165052057759999 43.4748936876540029 C
atom 4.0530684966079997 3.2794315993919998 41.5042320895560053 C
atom 5.3966762318520001 0.4785035912930000 47.0242725374939994 C
atom 1.3139881177600004 4.0898867955400000 43.9415262571440053 C
atom 0.0129031344000000 1.6503914848199999 48.9849396898200027 C
atom 0.0105903324200000 6.9097937994150005 49.4454945557999963 C
atom 2.5527754424519999 5.2706276962429994 52.9908216032999988 C
atom -1.1602741363000002 5.7560097269349999 58.5108620512380071 C
atom 2.8959223834480001 2.1345439311819998 54.4990374943260036 C
atom 4.0939410054319998 3.2974703247979997 52.5282408361500046 C
atom 5.4375487406760001 0.4965423166990000 58.0484163441660002 C
atom 1.3548621716279998 4.1079182880970002 54.9655350037380046 C
atom 0.0537690474640000 1.6684302102259998 60.0090834964920035 C
atom 0.0514577905279999 6.9278252919719998 60.4695033023940027 C
atom 2.5936479512760000 5.2886664216490002 64.0168562510639987 C
atom -1.1194016274760001 5.7740484523409998 69.5370317590799942 C
atom 2.9367948922720002 2.1525826565879997 65.5250721420899964 C
atom 4.1348135142560007 3.3155090502040001 63.5544105439919988 C
atom 5.4784212495000002 0.5145810421050000 69.0744509919299929 C
atom 1.3957346804520001 4.1259570135030001 65.9917047115799988 C
atom 0.0946481520480000 1.6864689356320000 71.0351181442560033 C
atom 0.0923302993520000 6.9458640173779997 71.4956730102360041 C
atom 2.6345220051440004 5.3066979142059996 75.0410000577359995 C
atom -1.0785291186520001 5.7920871777469998 80.5610405056740007 C
atom 2.9776608053360003 2.1706213819939997 76.5492159487620114 C
atom 4.1756794273200004 3.3335477756100000 74.5784192905859982 C
atom 5.5192887076080002 0.5326125346620000 80.0985947986020079 C
atom 1.4366005935160002 4.1439957389090001 77.0157134581740053 C
atom 0.1355140651120000 1.7045076610380001 82.0592619509280041 C
atom 0.1331962124160000 6.9639027427839997 82.5196817568299963 C
atom 2.6753945139680000 5.3247366396119995 86.0670347055000065 C
atom -1.0376566098280000 5.8101259031530006 91.5872102135160020 C
atom 3.0185399099200003 2.1886601073999996 87.5752505965260042 C
atom 4.2165585319040000 3.3515865010160000 85.6045889984279995 C
atom 5.5601678121919997 0.5506512600680000 91.1246294463660007 C
atom 1.4774796981000000 4.1620344643150000 88.0418831660160066 C
atom 0.1763865739360000 1.7225463864440000 93.0852965986919969 C
atom 0.1740753170000002 6.9819414681899996 93.5458514646720118 C
atom 2.7936316335039999 3.9597244449359996 41.3513440812600024 N
atom -1.4865050069640000 7.0287452340689995 46.8674677869359968 N
atom 2.5737172722240000 3.4097386069760001 44.0922533041919991 N
atom 1.4277319344680000 5.1835152628870000 42.9400557787740027 N
atom 3.9386826423839998 2.1850726142959997 42.5036766667560002 N
atom 5.5194154648720009 1.5777881465579999 48.0176394111839997 N
atom 1.8679185570360002 3.4227360366289998 40.4544101032619992 N
atom 0.9809572260079999 0.3324072743420000 45.9664820065979995 N
atom 3.4994173381720000 3.9465100298130000 44.9891872821900023 N
atom 0.2482102534120000 5.8399975695229998 42.6484610703720008 N
atom 1.0646134271840000 5.1499620763760001 48.1585070725380078 N
atom 5.1183053377599999 1.5287349646399999 42.7952713751580021 N
atom 0.2980181669960000 0.3595521566390000 49.6043252075279995 N
atom -0.1117644495999999 5.8108708866000001 48.4521276821099960 N
atom 4.4261269159040006 7.0558177878759993 50.5032850866960032 N
atom 4.3429211233279998 2.2386246282919999 48.3112600207560021 N
atom 2.8345056873720003 3.9777559374930003 52.3754878879320032 N
atom -1.4456390939000001 7.0467839594749995 57.8914765335300032 N
atom 2.6145847303320005 3.4277700995329998 55.1163971108639998 N
atom 1.4686044432920000 5.2015539882930000 53.9640645253680020 N
atom 3.9795485554479999 2.2031113397019997 53.5276854133499995 N
atom 5.5602895187400003 1.5958196391149999 59.0417832178560005 N
atom 1.9087844700999999 3.4407747620349998 51.4785539099340070 N
atom 1.0218246841159999 0.3504387668990000 56.9906258132700003 N
atom 3.5402847962800004 3.9645415223699998 56.0133310888620031 N
atom 0.2890761664760000 5.8580362949289997 53.6724698169660002 N
atom 1.1054808852920002 5.1679935689329994 59.1825158191320000 N
atom 5.1591778465839999 1.5467736900459998 53.8192801217520014 N
atom 0.3388856251040000 0.3775836491960000 60.6284690142000073 N
atom -0.0708985365360002 5.8289096120060000 59.4761364287040024 N
atom 4.4669928289680003 7.0738565132820002 61.5272938332900026 N
atom 4.3837870363920004 2.2566633536979999 59.3354038274280029 N
atom 2.8753766511520000 3.9958018957480004 63.4015225356960030 N
atom -1.4047599893160001 7.0648226848810003 68.9176462413719975 N
atom 2.6554622898720002 3.4458160577879999 66.1424317586280068 N
atom 1.5094769521159999 5.2195927136989999 64.9902342332100034 N
atom 4.0204276600320004 2.2211500651079996 64.5538551211920009 N
atom 5.6011620275639995 1.6138583645209998 70.0678178656200004 N
atom 1.9496569789240001 3.4588134874409997 62.5045885576979998 N
atom 1.0626971929400002 0.3684774923050000 68.0166604610340073 N
atom 3.5811573051040000 3.9825802477759997 67.0393657366259959 N
atom 0.3299552710599999 5.8760750203349996 64.6986395248080015 N
atom 1.1463599898760000 5.1860322943389994 70.2086855269739942 N
atom 5.2000503554080000 1.5648124154520000 64.8454498295940027 N
atom 0.3797647296880000 0.3956223746019999 71.6545036619640001 N
atom -0.0300260277120000 5.8469483374119999 70.5021710764680023 N
atom 4.5078719335519999 7.0918952386880001 72.5534635411319897 N
atom 4.4246661409760000 2.2747020791039998 70.3614384751920028 N
atom 2.9162441092600004 4.0138333883049997 74.4256663423680038 N
atom -1.3638940762520000 7.0828614102870002 79.9416549879660039 N
atom 2.6963297479800001 3.4638475503450001 77.1665755653000076 N
atom 1.5503428651800000 5.2376314391049998 76.0142429798040098 N
atom 4.0612935730960000 2.2391887905139995 75.5778638677859931 N
atom 5.6420279406280001 1.6318970899270000 81.0919616722920011 N
atom 1.9905310327920003 3.4768449799979999 73.5287323643700006 N
atom 1.1035697017639998 0.3865162177110000 79.0408042677060081 N
atom 3.6220298139279996 4.0006189731820001 78.0635095432980108 N
atom 0.3708211841240001 5.8941137457409996 75.7226482714020079 N
atom 1.1872259029400001 5.2040710197449993 81.2326942735680007 N
atom 5.2409162684720005 1.5828511408579999 75.8694585761879949 N
atom 0.4206306427520000 0.4136611000080000 82.6786474686360009 N
atom 0.0108414303960001 5.8649798299689992 81.5263148831400031 N
atom 4.5487393916599999 7.1099267312450003 83.5774722877259961 N
atom 4.4655320540399996 2.2927408045099997 81.3855822818640036 N
atom 2.9571232138440000 4.0318721137109996 85.4517009901319966 N
atom -1.3230215674280001 7.1009001356930002 90.9678246958080052 N
atom 2.7372022568040006 3.4818862757510001 88.1926102130640004 N
atom 1.5912219697640002 5.2556701645109998 87.0404126876459969 N
atom 4.1021660819200001 2.2572275159199999 86.6040335756279944 N
atom 5.6829070452120005 1.6499358153329999 92.1179963200560081 N
atom 2.0314035416160001 3.4948837054039998 84.5547670121339934 N
atom 1.1444422105880001 0.4045549431170000 90.0668389154700151 N
atom 3.6629023227520001 4.0186576985880000 89.0895441910620036 N
atom 0.4116936929479998 5.9121524711469995 86.7488179792440093 N
atom 1.2280984117640004 5.2221097451509992 92.2588639814100020 N
atom 5.2817953730560001 1.6008898662640001 86.8956282840299963 N
atom 0.4615031515760000 0.4316998254140000 93.7046821163999937 N
atom 0.0517205349800000 5.8830185553749992 92.5523495309039959 N
atom 4.5896119004840008 7.1279654566510002 94.6036419955679975 N
atom 4.5064045628640006 2.3107795299159997 92.4116169296279963 N
atom 0.8558396531160002 4.0964035924889997 40.2333167555759985 O
atom 0.4489385744479998 6.8929629597919995 45.7452535988339974 O
atom 4.5114406842160006 3.2727629126140001 45.2083897887840038 O
atom 2.1268398137280005 2.3103744903719998 39.9999329407920001 O
atom 0.7183061777840001 1.4430546353859999 45.5099789429579999 O
atom 3.2407005500399997 5.0588715760699996 45.4456903458300019 O
atom 0.2842636995440000 6.7720731216059997 41.8399914434640010 O
atom 1.0224259748720002 4.2138722930979995 47.3561151491400025 O
atom 5.0819927600680002 0.5962977701070000 43.6015800408179999 O
atom -0.7555637127560000 5.4546458405009997 43.2737892315120050 O
atom 6.1222424718840003 1.9143109119809998 42.1718340551100042 O
atom 3.3353689798480004 1.8528967911220000 47.6939004042179988 O
atom 4.9581301170240000 0.4953344309160000 50.7245134944600053 O
atom 4.6884146644520008 5.9450185370029995 50.9597881503359957 O
atom 4.3852382319200007 3.1747867400600001 49.1156778453240008 O
atom 2.0721320589880001 5.5355380237169998 48.7758666890760040 O
atom 0.8967071112240002 4.1144350850459999 51.2573255021699978 O
atom 0.4898060325560000 6.9109944523490006 56.7693974055060053 O
atom 4.5523065972800003 3.2908016380200000 56.2325335954560046 O
atom 2.1677057267920001 2.3284132157779998 51.0240767474640009 O
atom 0.7591720908480001 1.4610933607920000 56.5341227496300007 O
atom 3.2815664631039998 5.0769103014759995 56.4696990924240012 O
atom 0.3251296126080003 6.7901118470119997 52.8641352501360018 O
atom 1.0632918879360000 4.2319110185039994 58.3801238957340018 O
atom 5.1228668139360005 0.6143292626640000 54.6257238474900007 O
atom -0.7146962546480001 5.4726773330579999 54.2979330381839986 O
atom 6.1631083849480008 1.9323496373869999 53.1959778617820049 O
atom 3.3762348929120001 1.8709355165280002 58.7180442108899996 O
atom 4.9989960300880005 0.5133731563220000 61.7485222410540047 O
atom 4.7292805775160005 5.9630572624089995 61.9837968969300022 O
atom 4.4261041449839995 3.1928254654660000 60.1398216519960016 O
atom 2.1129979720519998 5.5535767491230006 59.7998754356700033 O
atom 0.9375780750040001 4.1324810433009995 62.2834952100120063 O
atom 0.5306785413800001 6.9290331777550005 67.7954320532700052 O
atom 4.5931791061039995 3.3088403634260000 67.2585682432199974 O
atom 2.2085848313760001 2.3464519411839997 62.0501113952280008 O
atom 0.8000511954320000 1.4791320861980000 67.5601573973939935 O
atom 3.3224389719280003 5.0949490268819995 67.4958688002659954 O
atom 0.3660087171920000 6.8081505724179996 63.8901698979000088 O
atom 1.1041643967600001 4.2499497439099994 69.4062936035760032 O
atom 5.1637377777159994 0.6323752209190000 65.6517584952540005 O
atom -0.6738237458240001 5.4907160584639998 65.3239676859480056 O
atom -0.3917725104680000 1.9503883627929999 64.2220125095460048 O
atom 3.4171139974960001 1.8889742419340001 69.7440788586540066 O
atom 5.0398751346720001 0.5314118817279999 72.7745568888179974 O
atom 4.7701530863400006 5.9810959878149994 73.0099666047720035 O
atom 4.4669766538080005 3.2108641908719999 71.1658562997600086 O
atom 2.1538704808759999 5.5716154745290005 70.8260451435120046 O
atom 0.9784455331120001 4.1505125358579997 73.3075039566059985 O
atom 0.5715510502039999 6.9470719031610004 78.8195758599420060 O
atom 4.6340450191680000 3.3268790888319999 78.2825769898140038 O
atom 2.2494522894840006 2.3644834337409999 73.0742552019000016 O
atom 0.8409171084959999 1.4971708116040001 78.5843012040660085 O
atom 3.3633064300359998 5.1129805194389997 78.5198775468600161 O
atom 0.4068746302560000 6.8261892978239995 74.9143137045719953 O
atom 1.1450318548680003 4.2679812364670004 80.4303023501700096 O
atom 5.2046052358240003 0.6504067134760000 76.6759023019260013 O
atom -0.6329512370000001 5.5087547838699997 76.3481114926199922 O
atom -0.3509065974040000 1.9684270881989998 75.2461563162180056 O
atom 3.4579799105599998 1.9070129673400000 80.7682226653260074 O
atom 5.0807425927800001 0.5494433742850000 83.7987006954899982 O
atom 4.8110255951639997 5.9991347132209993 84.0339753513659957 O
atom 4.5078441119160004 3.2288956834290001 82.1900001064319952 O
atom 2.1947363939400000 5.5896541999350005 81.8500538901059969 O
atom 1.0193246376960003 4.1685512612639997 84.3336736644479998 O
atom 0.6124235590280001 6.9651106285670004 89.8456105077059988 O
atom 4.6749241237520005 3.3449178142379998 89.3087466976559909 O
atom 2.2903232532640003 2.3825293919959996 84.1002898496640086 O
atom 0.8817896173200001 1.5152095370100001 89.6103358518300013 O
atom 3.4041855346199998 5.1310192448449996 89.5460472547020032 O
atom 0.4477471390800001 6.8442280232299995 85.9403483523360023 O
atom 1.1859094144079998 4.2860271947220001 91.4564720580120110 O
atom 5.2454843404079998 0.6684454388820000 87.7019369496900083 O
atom -0.5920787281760000 5.5267935092759997 87.3741461403839992 O
atom -0.3100340885800000 1.9864658136049997 86.2721909639820126 O
atom 3.4988524193840003 1.9250516927460000 91.7942573130900001 O
atom 5.1216151016040010 0.5674820996909999 94.8247353432540052 O
atom 4.8518981039879998 6.0171734386269993 95.0601450592080113 O
atom 4.5487216714559997 3.2469416416839998 93.2160347541960022 O
atom 2.2356154985240000 5.6076929253410004 92.8762235979479982 O
