#=======================================================
# FHI-aims file: ./geometry.in
# Created using the Atomic Simulation Environment (ASE)
# Tue Feb 11 11:38:07 2020
#=======================================================
lattice_vector 6.5957600000000003 0.0000000000000000 0.0000000000000000 
lattice_vector -1.5450440000000001 7.2328489999999999 0.0000000000000000 
lattice_vector 0.0000000000000000 0.0000000000000000 179.1604250000000036 
atom_frac 0.7022389999999999 0.7714430000000000 0.2369460000000000 H
atom_frac 0.8527860000000000 0.7481320000000000 0.2677790000000000 H
atom_frac 0.3500430000000000 0.2473650000000000 0.2399770000000000 H
atom_frac 0.7536680000000000 0.3937020000000000 0.2263170000000000 H
atom_frac 0.7996330000000000 0.1252500000000000 0.2571270000000000 H
atom_frac 0.2988840000000000 0.6252560000000000 0.2506060000000000 H
atom_frac 0.5320430000000000 0.8299350000000000 0.2300880000000000 H
atom_frac 0.0220780000000000 0.6893629999999999 0.2608990000000000 H
atom_frac 0.5204460000000000 0.1889920000000000 0.2468120000000000 H
atom_frac 0.8566390000000000 0.5554530000000000 0.2335000000000000 H
atom_frac 0.6981000000000001 0.9643940000000000 0.2643670000000000 H
atom_frac 0.1956740000000000 0.4633950000000000 0.2434340000000000 H
atom_frac 0.2063670000000000 0.2733600000000000 0.2706860000000000 H
atom_frac 0.2593690000000000 0.8961910000000000 0.2813270000000000 H
atom_frac 0.0370650000000000 0.3321490000000000 0.2775670000000000 H
atom_frac 0.3610330000000000 0.0570980000000000 0.2740990000000000 H
atom_frac 0.7090190000000000 0.7739360000000000 0.2984780000000000 H
atom_frac 0.8595670000000000 0.7506260000000000 0.3293110000000000 H
atom_frac 0.3568230000000001 0.2498590000000000 0.3015090000000000 H
atom_frac 0.7604480000000000 0.3961950000000000 0.2878490000000000 H
atom_frac 0.8064130000000000 0.1277440000000000 0.3186590000000000 H
atom_frac 0.3056640000000000 0.6277500000000000 0.3121380000000000 H
atom_frac 0.5388230000000001 0.8324279999999999 0.2916200000000000 H
atom_frac 0.0288580000000000 0.6918570000000001 0.3224310000000000 H
atom_frac 0.5272260000000000 0.1914860000000000 0.3083440000000000 H
atom_frac 0.8634190000000002 0.5579470000000000 0.2950320000000000 H
atom_frac 0.7048810000000000 0.9668869999999999 0.3258990000000000 H
atom_frac 0.2024540000000000 0.4658890000000000 0.3049660000000000 H
atom_frac 0.2131470000000000 0.2758540000000000 0.3322180000000000 H
atom_frac 0.2661490000000000 0.8986850000000000 0.3428590000000000 H
atom_frac 0.0438450000000000 0.3346419999999999 0.3390990000000000 H
atom_frac 0.3678130000000000 0.0595920000000000 0.3356310000000000 H
atom_frac 0.7158010000000001 0.7764300000000000 0.3600210000000000 H
atom_frac 0.8663480000000000 0.7531200000000000 0.3908540000000000 H
atom_frac 0.3636040000000000 0.2523530000000000 0.3630520000000000 H
atom_frac 0.7672289999999999 0.3986900000000000 0.3493920000000000 H
atom_frac 0.8131939999999999 0.1302380000000000 0.3802020000000000 H
atom_frac 0.3124460000000000 0.6302440000000000 0.3736809999999999 H
atom_frac 0.5456050000000000 0.8349220000000001 0.3531630000000000 H
atom_frac 0.0356400000000000 0.6943510000000001 0.3839740000000000 H
atom_frac 0.5340080000000000 0.1939800000000000 0.3698870000000000 H
atom_frac 0.8702010000000000 0.5604410000000000 0.3565750000000000 H
atom_frac 0.7116620000000000 0.9693820000000000 0.3874420000000000 H
atom_frac 0.2092350000000000 0.4683830000000000 0.3665089999999999 H
atom_frac 0.2199280000000000 0.2783480000000000 0.3937620000000000 H
atom_frac 0.2729310000000000 0.9011790000000000 0.4044020000000000 H
atom_frac 0.0506270000000000 0.3371370000000000 0.4006420000000000 H
atom_frac 0.3745940000000000 0.0620860000000000 0.3971740000000000 H
atom_frac 0.7225810000000000 0.7789239999999999 0.4215530000000000 H
atom_frac 0.8731279999999999 0.7556140000000000 0.4523860000000000 H
atom_frac 0.3703850000000000 0.2548470000000000 0.4245840000000000 H
atom_frac 0.7740089999999998 0.4011830000000000 0.4109240000000000 H
atom_frac 0.8199740000000000 0.1327320000000000 0.4417340000000000 H
atom_frac 0.3192260000000000 0.6327380000000000 0.4352130000000000 H
atom_frac 0.5523850000000000 0.8374160000000000 0.4146949999999999 H
atom_frac 0.0424200000000000 0.6968450000000000 0.4455060000000000 H
atom_frac 0.5407880000000000 0.1964740000000000 0.4314190000000000 H
atom_frac 0.8769810000000000 0.5629340000000000 0.4181070000000000 H
atom_frac 0.7184420000000000 0.9718750000000000 0.4489740000000000 H
atom_frac 0.2160160000000000 0.4708770000000000 0.4280410000000000 H
atom_frac 0.2267090000000000 0.2808410000000000 0.4552930000000000 H
atom_frac 0.2797110000000000 0.9036729999999999 0.4659340000000001 H
atom_frac 0.0574070000000000 0.3396300000000000 0.4621740000000000 H
atom_frac 0.3813740000000000 0.0645800000000000 0.4587060000000000 H
atom_frac 0.7293620000000000 0.7814179999999999 0.4830960000000000 H
atom_frac 0.8799100000000000 0.7581080000000000 0.5139290000000000 H
atom_frac 0.3771659999999999 0.2573410000000000 0.4861269999999999 H
atom_frac 0.7807910000000000 0.4036770000000000 0.4724670000000001 H
atom_frac 0.8267560000000000 0.1352260000000000 0.5032780000000000 H
atom_frac 0.3260070000000000 0.6352320000000000 0.4967560000000000 H
atom_frac 0.5591660000000001 0.8399100000000000 0.4762380000000000 H
atom_frac 0.0492010000000000 0.6993390000000000 0.5070490000000000 H
atom_frac 0.5475690000000000 0.1989680000000000 0.4929620000000000 H
atom_frac 0.8837619999999999 0.5654280000000000 0.4796500000000000 H
atom_frac 0.7252240000000000 0.9743690000000000 0.5105170000000000 H
atom_frac 0.2227970000000000 0.4733710000000000 0.4895840000000000 H
atom_frac 0.2334900000000000 0.2833350000000000 0.5168370000000000 H
atom_frac 0.2864920000000000 0.9061669999999999 0.5274770000000000 H
atom_frac 0.0641880000000000 0.3421240000000000 0.5237170000000000 H
atom_frac 0.3881560000000000 0.0670740000000000 0.5202490000000000 H
atom_frac 0.7361420000000000 0.7839120000000001 0.5446280000000000 H
atom_frac 0.8866900000000000 0.7606010000000000 0.5754610000000000 H
atom_frac 0.3839460000000000 0.2598350000000000 0.5476590000000000 H
atom_frac 0.7875710000000000 0.4061710000000000 0.5339990000000000 H
atom_frac 0.8335359999999999 0.1377200000000000 0.5648090000000000 H
atom_frac 0.3327870000000000 0.6377250000000000 0.5582880000000000 H
atom_frac 0.5659470000000000 0.8424040000000000 0.5377700000000000 H
atom_frac 0.0559820000000000 0.7018320000000000 0.5685810000000000 H
atom_frac 0.5543490000000000 0.2014620000000000 0.5544940000000000 H
atom_frac 0.8905430000000000 0.5679219999999999 0.5411820000000001 H
atom_frac 0.7320040000000000 0.9768630000000000 0.5720490000000000 H
atom_frac 0.2295770000000000 0.4758650000000000 0.5511160000000001 H
atom_frac 0.2402700000000000 0.2858290000000000 0.5783680000000000 H
atom_frac 0.2932730000000000 0.9086600000000000 0.5890090000000000 H
atom_frac 0.0709680000000000 0.3446180000000000 0.5852490000000000 H
atom_frac 0.3949360000000000 0.0695670000000000 0.5817810000000000 H
atom_frac 0.7429240000000000 0.7864060000000000 0.6061710000000000 H
atom_frac 0.8934710000000000 0.7630950000000000 0.6370040000000000 H
atom_frac 0.3907280000000000 0.2623290000000000 0.6092020000000000 H
atom_frac 0.7943519999999999 0.4086650000000000 0.5955420000000000 H
atom_frac 0.8403170000000000 0.1402140000000000 0.6263530000000000 H
atom_frac 0.3395690000000000 0.6402190000000000 0.6198310000000000 H
atom_frac 0.5727280000000000 0.8448980000000000 0.5993130000000000 H
atom_frac 0.0627630000000000 0.7043270000000000 0.6301240000000000 H
atom_frac 0.5611310000000000 0.2039560000000000 0.6160369999999999 H
atom_frac 0.8973240000000001 0.5704160000000001 0.6027250000000000 H
atom_frac 0.7387850000000000 0.9793570000000000 0.6335920000000000 H
atom_frac 0.2363590000000000 0.4783590000000000 0.6126590000000000 H
atom_frac 0.2470510000000000 0.2883230000000000 0.6399120000000000 H
atom_frac 0.3000540000000000 0.9111540000000000 0.6505520000000000 H
atom_frac 0.0777500000000000 0.3471120000000000 0.6467920000000000 H
atom_frac 0.4017170000000000 0.0720620000000000 0.6433240000000000 H
atom_frac 0.7497040000000000 0.7889000000000000 0.6677030000000000 H
atom_frac 0.9002510000000000 0.7655890000000000 0.6985360000000000 H
atom_frac 0.3975080000000000 0.2648220000000000 0.6707340000000001 H
atom_frac 0.8011330000000000 0.4111590000000000 0.6570740000000000 H
atom_frac 0.8470980000000000 0.1427070000000000 0.6878840000000001 H
atom_frac 0.3463490000000000 0.6427130000000000 0.6813630000000001 H
atom_frac 0.5795080000000000 0.8473920000000000 0.6608450000000000 H
atom_frac 0.0695430000000000 0.7068200000000000 0.6916560000000000 H
atom_frac 0.5679110000000001 0.2064490000000000 0.6775690000000000 H
atom_frac 0.9041040000000000 0.5729100000000000 0.6642570000000000 H
atom_frac 0.7455650000000001 0.9818510000000000 0.6951240000000000 H
atom_frac 0.2431390000000000 0.4808520000000000 0.6741910000000000 H
atom_frac 0.2538320000000000 0.2908170000000000 0.7014430000000000 H
atom_frac 0.3068340000000000 0.9136480000000000 0.7120840000000001 H
atom_frac 0.0845300000000000 0.3496060000000000 0.7083240000000000 H
atom_frac 0.4084980000000000 0.0745550000000000 0.7048560000000000 H
atom_frac 0.7564850000000000 0.7913940000000000 0.7292459999999999 H
atom_frac 0.9070330000000000 0.7680830000000000 0.7600789999999998 H
atom_frac 0.4042890000000000 0.2673160000000000 0.7322770000000000 H
atom_frac 0.8079140000000001 0.4136530000000000 0.7186169999999998 H
atom_frac 0.8538789999999999 0.1452020000000000 0.7494279999999999 H
atom_frac 0.3531300000000000 0.6452070000000000 0.7429059999999998 H
atom_frac 0.5862900000000000 0.8498860000000000 0.7223879999999999 H
atom_frac 0.0763250000000000 0.7093140000000000 0.7531990000000001 H
atom_frac 0.5746920000000000 0.2089430000000000 0.7391120000000000 H
atom_frac 0.9108860000000000 0.5754040000000000 0.7258000000000000 H
atom_frac 0.7523470000000000 0.9843450000000000 0.7566670000000000 H
atom_frac 0.2499200000000000 0.4833470000000000 0.7357340000000000 H
atom_frac 0.2606130000000000 0.2933109999999999 0.7629869999999999 H
atom_frac 0.3136160000000000 0.9161420000000000 0.7736270000000000 H
atom_frac 0.0913110000000000 0.3521000000000000 0.7698670000000000 H
atom_frac 0.4152790000000001 0.0770490000000000 0.7663990000000002 H
atom_frac 0.5509510000000000 0.7262130000000000 0.2342410000000000 C
atom_frac 0.0037260000000000 0.7933220000000000 0.2650520000000000 C
atom_frac 0.5014080000000000 0.2926240000000000 0.2426590000000000 C
atom_frac 0.7207060000000000 0.4534080000000000 0.2316590000000000 C
atom_frac 0.8337010000000000 0.0661570000000000 0.2624700000000000 C
atom_frac 0.3316750000000001 0.5654600000000000 0.2452630000000000 C
atom_frac 0.0554070000000000 0.2281800000000000 0.2734140000000000 C
atom_frac 0.2253910000000000 0.9553350000000000 0.2759840000000000 C
atom_frac 0.5577309999999999 0.7287069999999999 0.2957730000000000 C
atom_frac 0.0105060000000000 0.7958150000000001 0.3265840000000000 C
atom_frac 0.5081890000000000 0.2951180000000000 0.3041910000000000 C
atom_frac 0.7274870000000000 0.4559020000000000 0.2931910000000000 C
atom_frac 0.8404820000000000 0.0686510000000000 0.3240020000000000 C
atom_frac 0.3384560000000000 0.5679530000000000 0.3067950000000000 C
atom_frac 0.0621870000000000 0.2306740000000000 0.3349460000000000 C
atom_frac 0.2321710000000000 0.9578280000000000 0.3375160000000000 C
atom_frac 0.5645120000000000 0.7312010000000001 0.3573160000000000 C
atom_frac 0.0172870000000000 0.7983090000000000 0.3881270000000000 C
atom_frac 0.5149700000000000 0.2976120000000000 0.3657340000000000 C
atom_frac 0.7342680000000000 0.4583960000000000 0.3547340000000000 C
atom_frac 0.8472630000000000 0.0711450000000000 0.3855450000000000 C
atom_frac 0.3452370000000000 0.5704470000000000 0.3683380000000001 C
atom_frac 0.0689690000000000 0.2331680000000000 0.3964890000000000 C
atom_frac 0.2389520000000000 0.9603220000000000 0.3990590000000000 C
atom_frac 0.5712930000000001 0.7336940000000000 0.4188480000000001 C
atom_frac 0.0240680000000000 0.8008029999999999 0.4496590000000000 C
atom_frac 0.5217500000000000 0.3001060000000000 0.4272660000000000 C
atom_frac 0.7410480000000000 0.4608900000000000 0.4162660000000000 C
atom_frac 0.8540430000000000 0.0736380000000000 0.4470770000000001 C
atom_frac 0.3520170000000000 0.5729410000000000 0.4298699999999999 C
atom_frac 0.0757490000000000 0.2356620000000000 0.4580210000000000 C
atom_frac 0.2457320000000000 0.9628160000000000 0.4605910000000000 C
atom_frac 0.5780740000000000 0.7361880000000000 0.4803910000000000 C
atom_frac 0.0308490000000000 0.8032970000000001 0.5112020000000000 C
atom_frac 0.5285320000000000 0.3025999999999999 0.4888090000000000 C
atom_frac 0.7478300000000000 0.4633840000000000 0.4778089999999999 C
atom_frac 0.8608250000000000 0.0761320000000000 0.5086200000000000 C
atom_frac 0.3587990000000000 0.5754350000000000 0.4914130000000000 C
atom_frac 0.0825300000000000 0.2381560000000000 0.5195640000000000 C
atom_frac 0.2525140000000000 0.9653100000000000 0.5221340000000000 C
atom_frac 0.5848540000000000 0.7386819999999999 0.5419230000000000 C
atom_frac 0.0376290000000000 0.8057910000000000 0.5727340000000000 C
atom_frac 0.5353120000000000 0.3050930000000000 0.5503410000000000 C
atom_frac 0.7546100000000000 0.4658780000000000 0.5393410000000000 C
atom_frac 0.8676050000000001 0.0786260000000000 0.5701520000000000 C
atom_frac 0.3655790000000000 0.5779290000000000 0.5529450000000000 C
atom_frac 0.0893110000000000 0.2406500000000000 0.5810959999999999 C
atom_frac 0.2592940000000000 0.9678040000000000 0.5836660000000000 C
atom_frac 0.5916360000000001 0.7411759999999999 0.6034659999999999 C
atom_frac 0.0444110000000000 0.8082850000000000 0.6342770000000000 C
atom_frac 0.5420929999999999 0.3075869999999999 0.6118840000000000 C
atom_frac 0.7613910000000000 0.4683720000000000 0.6008840000000000 C
atom_frac 0.8743860000000000 0.0811200000000000 0.6316950000000000 C
atom_frac 0.3723600000000001 0.5804230000000000 0.6144880000000000 C
atom_frac 0.0960920000000000 0.2431440000000000 0.6426390000000000 C
atom_frac 0.2660750000000000 0.9702980000000000 0.6452090000000000 C
atom_frac 0.5984159999999999 0.7436700000000001 0.6649980000000000 C
atom_frac 0.0511910000000000 0.8107790000000000 0.6958090000000000 C
atom_frac 0.5488730000000002 0.3100810000000001 0.6734160000000000 C
atom_frac 0.7681709999999999 0.4708650000000000 0.6624160000000000 C
atom_frac 0.8811660000000000 0.0836140000000000 0.6932270000000000 C
atom_frac 0.3791400000000000 0.5829170000000000 0.6760200000000000 C
atom_frac 0.1028720000000000 0.2456370000000000 0.7041710000000000 C
atom_frac 0.2728550000000000 0.9727920000000000 0.7067410000000000 C
atom_frac 0.6051970000000000 0.7461640000000000 0.7265410000000000 C
atom_frac 0.0579720000000000 0.8132730000000000 0.7573520000000001 C
atom_frac 0.5556550000000000 0.3125750000000000 0.7349590000000000 C
atom_frac 0.7749530000000000 0.4733589999999999 0.7239600000000002 C
atom_frac 0.8879479999999998 0.0861080000000000 0.7547700000000002 C
atom_frac 0.3859220000000000 0.5854110000000000 0.7375630000000000 C
atom_frac 0.1096540000000000 0.2481320000000000 0.7657140000000000 C
atom_frac 0.2796370000000000 0.9752859999999999 0.7682839999999999 C
atom_frac 0.5517919999999999 0.5474640000000000 0.2308060000000000 N
atom_frac 0.0022650000000000 0.9717810000000000 0.2615950000000000 N
atom_frac 0.5006380000000000 0.4714240000000000 0.2461050000000000 N
atom_frac 0.3843390000000000 0.7166630000000000 0.2396740000000000 N
atom_frac 0.6679210000000000 0.3021040000000000 0.2372380000000000 N
atom_frac 0.8879120000000000 0.2181420000000000 0.2680150000000000 N
atom_frac 0.3940510000000000 0.4732210000000000 0.2258000000000000 N
atom_frac 0.1594910000000000 0.0459580000000000 0.2565660000000000 N
atom_frac 0.6583700000000000 0.5456370000000000 0.2511110000000000 N
atom_frac 0.2267700000000000 0.8074270000000000 0.2380460000000000 N
atom_frac 0.3281990000000000 0.7120240000000000 0.2688010000000000 N
atom_frac 0.8255100000000000 0.2113600000000000 0.2388650000000000 N
atom_frac 0.0568280000000000 0.0497110000000000 0.2768710000000000 N
atom_frac 0.1712500000000000 0.8034000000000000 0.2704400000000000 N
atom_frac 0.8995710000000000 0.9755239999999999 0.2818880000000000 N
atom_frac 0.7309430000000000 0.3095080000000000 0.2696540000000000 N
atom_frac 0.5585730000000000 0.5499570000000000 0.2923380000000000 N
atom_frac 0.0090450000000000 0.9742749999999999 0.3231270000000000 N
atom_frac 0.5074180000000000 0.4739170000000000 0.3076370000000000 N
atom_frac 0.3911200000000000 0.7191570000000000 0.3012050000000000 N
atom_frac 0.6747010000000000 0.3045980000000000 0.2987700000000000 N
atom_frac 0.8946930000000000 0.2206350000000000 0.3295470000000000 N
atom_frac 0.4008310000000000 0.4757150000000000 0.2873320000000000 N
atom_frac 0.1662710000000000 0.0484510000000000 0.3180980000000000 N
atom_frac 0.6651500000000000 0.5481300000000000 0.3126430000000000 N
atom_frac 0.2335500000000000 0.8099210000000000 0.2995780000000000 N
atom_frac 0.3349790000000000 0.7145170000000000 0.3303330000000000 N
atom_frac 0.8322909999999999 0.2138540000000000 0.3003970000000000 N
atom_frac 0.0636080000000000 0.0522040000000000 0.3384030000000000 N
atom_frac 0.1780300000000000 0.8058940000000000 0.3319710000000000 N
atom_frac 0.9063510000000000 0.9780180000000001 0.3434200000000000 N
atom_frac 0.7377230000000000 0.3120020000000000 0.3311860000000000 N
atom_frac 0.5653540000000000 0.5524520000000001 0.3538810000000000 N
atom_frac 0.0158270000000000 0.9767690000000001 0.3846700000000000 N
atom_frac 0.5142000000000000 0.4764120000000000 0.3691800000000001 N
atom_frac 0.3979009999999999 0.7216510000000000 0.3627490000000000 N
atom_frac 0.6814829999999999 0.3070920000000000 0.3603129999999999 N
atom_frac 0.9014740000000000 0.2231290000000000 0.3910900000000000 N
atom_frac 0.4076120000000000 0.4782090000000000 0.3488750000000000 N
atom_frac 0.1730520000000000 0.0509450000000000 0.3796410000000001 N
atom_frac 0.6719309999999999 0.5506240000000000 0.3741860000000000 N
atom_frac 0.2403320000000000 0.8124150000000000 0.3611210000000000 N
atom_frac 0.3417610000000000 0.7170110000000000 0.3918760000000000 N
atom_frac 0.8390720000000000 0.2163480000000000 0.3619400000000000 N
atom_frac 0.0703900000000000 0.0546980000000000 0.3999460000000000 N
atom_frac 0.1848110000000000 0.8083880000000000 0.3935149999999999 N
atom_frac 0.9131330000000000 0.9805120000000001 0.4049630000000001 N
atom_frac 0.7445050000000000 0.3144960000000000 0.3927290000000000 N
atom_frac 0.5721340000000000 0.5549450000000000 0.4154130000000000 N
atom_frac 0.0226070000000000 0.9792630000000000 0.4462020000000000 N
atom_frac 0.5209800000000000 0.4789050000000000 0.4307119999999999 N
atom_frac 0.4046810000000000 0.7241450000000000 0.4242810000000000 N
atom_frac 0.6882630000000001 0.3095859999999999 0.4218450000000000 N
atom_frac 0.9082540000000000 0.2256230000000000 0.4526220000000000 N
atom_frac 0.4143930000000000 0.4807020000000000 0.4104070000000000 N
atom_frac 0.1798330000000000 0.0534390000000000 0.4411730000000000 N
atom_frac 0.6787119999999999 0.5531180000000000 0.4357180000000000 N
atom_frac 0.2471120000000000 0.8149090000000000 0.4226530000000001 N
atom_frac 0.3485410000000000 0.7195050000000000 0.4534080000000000 N
atom_frac 0.8458520000000000 0.2188420000000000 0.4234720000000000 N
atom_frac 0.0771700000000000 0.0571920000000000 0.4614780000000001 N
atom_frac 0.1915910000000000 0.8108810000000000 0.4550460000000000 N
atom_frac 0.9199130000000000 0.9830050000000000 0.4664950000000000 N
atom_frac 0.7512850000000000 0.3169900000000000 0.4542610000000000 N
atom_frac 0.5789160000000000 0.5574389999999999 0.4769560000000000 N
atom_frac 0.0293880000000000 0.9817570000000000 0.5077450000000000 N
atom_frac 0.5277610000000000 0.4813990000000000 0.4922550000000000 N
atom_frac 0.4114630000000000 0.7266390000000000 0.4858240000000000 N
atom_frac 0.6950440000000000 0.3120800000000000 0.4833880000000000 N
atom_frac 0.9150360000000000 0.2281170000000000 0.5141650000000000 N
atom_frac 0.4211740000000000 0.4831960000000000 0.4719500000000000 N
atom_frac 0.1866140000000000 0.0559330000000000 0.5027160000000001 N
atom_frac 0.6854930000000000 0.5556120000000000 0.4972610000000001 N
atom_frac 0.2538930000000000 0.8174030000000000 0.4841960000000000 N
atom_frac 0.3553220000000000 0.7219989999999999 0.5149510000000000 N
atom_frac 0.8526339999999999 0.2213360000000000 0.4850150000000000 N
atom_frac 0.0839510000000000 0.0596860000000000 0.5230210000000000 N
atom_frac 0.1983730000000000 0.8133749999999998 0.5165900000000000 N
atom_frac 0.9266940000000001 0.9854990000000000 0.5280380000000000 N
atom_frac 0.7580660000000000 0.3194839999999999 0.5158040000000000 N
atom_frac 0.5856960000000000 0.5599330000000001 0.5384880000000000 N
atom_frac 0.0361680000000000 0.9842510000000000 0.5692770000000000 N
atom_frac 0.5345410000000000 0.4838930000000000 0.5537870000000000 N
atom_frac 0.4182430000000000 0.7291320000000000 0.5473560000000000 N
atom_frac 0.7018240000000001 0.3145740000000001 0.5449200000000000 N
atom_frac 0.9218160000000001 0.2306110000000000 0.5756970000000000 N
atom_frac 0.4279540000000000 0.4856900000000001 0.5334820000000000 N
atom_frac 0.1933940000000000 0.0584270000000000 0.5642480000000000 N
atom_frac 0.6922730000000000 0.5581060000000000 0.5587930000000000 N
atom_frac 0.2606730000000000 0.8198960000000000 0.5457280000000000 N
atom_frac 0.3621020000000000 0.7244930000000001 0.5764830000000000 N
atom_frac 0.8594140000000000 0.2238300000000000 0.5465470000000000 N
atom_frac 0.0907320000000000 0.0621800000000000 0.5845530000000000 N
atom_frac 0.2051530000000000 0.8158690000000001 0.5781210000000000 N
atom_frac 0.9334740000000000 0.9879930000000000 0.5895700000000000 N
atom_frac 0.7648460000000000 0.3219770000000000 0.5773360000000000 N
atom_frac 0.5924770000000000 0.5624270000000000 0.6000310000000000 N
atom_frac 0.0429500000000000 0.9867450000000000 0.6308200000000000 N
atom_frac 0.5413230000000000 0.4863870000000000 0.6153300000000000 N
atom_frac 0.4250240000000000 0.7316260000000000 0.6088990000000000 N
atom_frac 0.7086059999999998 0.3170680000000000 0.6064630000000000 N
atom_frac 0.9285970000000000 0.2331050000000000 0.6372400000000000 N
atom_frac 0.4347350000000000 0.4881840000000000 0.5950250000000000 N
atom_frac 0.2001760000000000 0.0609210000000000 0.6257910000000000 N
atom_frac 0.6990540000000001 0.5606000000000000 0.6203360000000000 N
atom_frac 0.2674550000000000 0.8223900000000000 0.6072710000000000 N
atom_frac 0.3688840000000000 0.7269870000000000 0.6380260000000000 N
atom_frac 0.8661950000000000 0.2263240000000000 0.6080910000000000 N
atom_frac 0.0975130000000000 0.0646740000000000 0.6460960000000000 N
atom_frac 0.2119340000000000 0.8183630000000000 0.6396650000000000 N
atom_frac 0.9402560000000000 0.9904870000000000 0.6511130000000001 N
atom_frac 0.7716280000000000 0.3244710000000000 0.6388790000000000 N
atom_frac 0.5992570000000000 0.5649210000000000 0.6615630000000000 N
atom_frac 0.0497300000000000 0.9892380000000000 0.6923520000000000 N
atom_frac 0.5481030000000000 0.4888810000000000 0.6768620000000000 N
atom_frac 0.4318040000000000 0.7341200000000000 0.6704310000000000 N
atom_frac 0.7153860000000000 0.3195610000000000 0.6679950000000000 N
atom_frac 0.9353770000000000 0.2355990000000000 0.6987719999999999 N
atom_frac 0.4415160000000000 0.4906780000000000 0.6565569999999999 N
atom_frac 0.2069560000000000 0.0634150000000000 0.6873230000000000 N
atom_frac 0.7058350000000000 0.5630940000000000 0.6818680000000000 N
atom_frac 0.2742350000000000 0.8248840000000000 0.6688030000000000 N
atom_frac 0.3756640000000000 0.7294800000000000 0.6995580000000000 N
atom_frac 0.8729749999999999 0.2288170000000000 0.6696220000000001 N
atom_frac 0.1042930000000000 0.0671680000000000 0.7076280000000000 N
atom_frac 0.2187140000000000 0.8208569999999999 0.7011970000000000 N
atom_frac 0.9470360000000000 0.9929810000000000 0.7126450000000000 N
atom_frac 0.7784080000000000 0.3269650000000000 0.7004110000000000 N
atom_frac 0.6060390000000000 0.5674150000000000 0.7231060000000000 N
atom_frac 0.0565110000000000 0.9917330000000000 0.7538950000000000 N
atom_frac 0.5548840000000000 0.4913750000000000 0.7384050000000000 N
atom_frac 0.4385860000000000 0.7366140000000000 0.7319740000000000 N
atom_frac 0.7221670000000000 0.3220550000000000 0.7295380000000000 N
atom_frac 0.9421589999999999 0.2380930000000000 0.7603150000000000 N
atom_frac 0.4482970000000000 0.4931720000000000 0.7180999999999998 N
atom_frac 0.2137370000000000 0.0659090000000000 0.7488660000000000 N
atom_frac 0.7126160000000000 0.5655880000000000 0.7434110000000002 N
atom_frac 0.2810160000000000 0.8273779999999999 0.7303459999999999 N
atom_frac 0.3824450000000000 0.7319750000000000 0.7611010000000001 N
atom_frac 0.8797570000000000 0.2313110000000000 0.7311660000000001 N
atom_frac 0.1110750000000000 0.0696620000000000 0.7691710000000002 N
atom_frac 0.2254960000000000 0.8233510000000002 0.7627399999999999 N
atom_frac 0.9538170000000000 0.9954750000000000 0.7741880000000000 N
atom_frac 0.7851890000000001 0.3294590000000000 0.7619540000000000 N
atom_frac 0.2624250000000000 0.5663610000000000 0.2245660000000000 O
atom_frac 0.2913050000000000 0.9530080000000000 0.2553320000000000 O
atom_frac 0.7899850000000000 0.4524860000000000 0.2523350000000000 O
atom_frac 0.3972810000000001 0.3194280000000000 0.2232640000000000 O
atom_frac 0.1556400000000000 0.1995140000000000 0.2540180000000000 O
atom_frac 0.6551709999999999 0.6994300000000000 0.2536590000000000 O
atom_frac 0.2624230000000000 0.9362940000000000 0.2335340000000000 O
atom_frac 0.2914860000000000 0.5826020000000000 0.2643220000000000 O
atom_frac 0.7898060000000000 0.0824430000000000 0.2433660000000000 O
atom_frac 0.0621050000000000 0.7541490000000000 0.2415370000000000 O
atom_frac 0.9902069999999999 0.2646690000000000 0.2353860000000000 O
atom_frac 0.5656930000000000 0.2561780000000000 0.2662080000000000 O
atom_frac 0.7677570000000000 0.0684840000000000 0.2831230000000000 O
atom_frac 0.9033620000000000 0.8219470000000000 0.2844360000000000 O
atom_frac 0.7676780000000000 0.4389400000000000 0.2741440000000000 O
atom_frac 0.4934390000000000 0.7653329999999999 0.2722470000000000 O
atom_frac 0.2692050000000000 0.5688540000000000 0.2860980000000000 O
atom_frac 0.2980850000000000 0.9555010000000000 0.3168630000000000 O
atom_frac 0.7967649999999999 0.4549800000000000 0.3138670000000000 O
atom_frac 0.4040610000000000 0.3219220000000000 0.2847950000000000 O
atom_frac 0.1624200000000000 0.2020080000000000 0.3155500000000000 O
atom_frac 0.6619510000000000 0.7019240000000000 0.3151910000000000 O
atom_frac 0.2692030000000000 0.9387880000000000 0.2950660000000000 O
atom_frac 0.2982660000000000 0.5850959999999999 0.3258540000000000 O
atom_frac 0.7965869999999999 0.0849360000000000 0.3048980000000000 O
atom_frac 0.0688850000000000 0.7566420000000000 0.3030690000000000 O
atom_frac 0.9969870000000001 0.2671630000000000 0.2969180000000000 O
atom_frac 0.5724730000000000 0.2586720000000000 0.3277400000000000 O
atom_frac 0.7745370000000000 0.0709780000000000 0.3446550000000000 O
atom_frac 0.9101420000000001 0.8244410000000000 0.3459680000000000 O
atom_frac 0.7744579999999999 0.4414340000000000 0.3356750000000000 O
atom_frac 0.5002190000000000 0.7678270000000001 0.3337790000000000 O
atom_frac 0.2759860000000000 0.5713490000000000 0.3476410000000000 O
atom_frac 0.3048660000000000 0.9579950000000000 0.3784070000000000 O
atom_frac 0.8035460000000000 0.4574740000000000 0.3754100000000000 O
atom_frac 0.4108430000000000 0.3244160000000000 0.3463390000000000 O
atom_frac 0.1692020000000000 0.2045020000000000 0.3770930000000000 O
atom_frac 0.6687320000000001 0.7044180000000000 0.3767340000000001 O
atom_frac 0.2759850000000000 0.9412820000000000 0.3566090000000000 O
atom_frac 0.3050470000000000 0.5875899999999999 0.3873970000000000 O
atom_frac 0.8033680000000000 0.0874310000000000 0.3664410000000000 O
atom_frac 0.0756660000000000 0.7591360000000000 0.3646120000000000 O
atom_frac 0.0037690000000000 0.2696570000000000 0.3584610000000000 O
atom_frac 0.5792550000000000 0.2611660000000000 0.3892830000000000 O
atom_frac 0.7813190000000000 0.0734720000000000 0.4061980000000000 O
atom_frac 0.9169230000000000 0.8269350000000000 0.4075110000000000 O
atom_frac 0.7812390000000000 0.4439280000000000 0.3972190000000000 O
atom_frac 0.5070000000000000 0.7703210000000000 0.3953220000000000 O
atom_frac 0.2827660000000000 0.5738420000000000 0.4091730000000000 O
atom_frac 0.3116470000000000 0.9604890000000000 0.4399380000000000 O
atom_frac 0.8103260000000000 0.4599680000000000 0.4369420000000000 O
atom_frac 0.4176230000000000 0.3269090000000000 0.4078710000000000 O
atom_frac 0.1759820000000000 0.2069960000000000 0.4386250000000000 O
atom_frac 0.6755120000000000 0.7069110000000000 0.4382660000000000 O
atom_frac 0.2827650000000000 0.9437759999999999 0.4181410000000000 O
atom_frac 0.3118270000000000 0.5900830000000000 0.4489290000000000 O
atom_frac 0.8101480000000000 0.0899240000000000 0.4279730000000000 O
atom_frac 0.0824470000000000 0.7616300000000000 0.4261440000000000 O
atom_frac 0.0105490000000000 0.2721510000000000 0.4199930000000000 O
atom_frac 0.5860350000000000 0.2636600000000000 0.4508150000000000 O
atom_frac 0.7880990000000000 0.0759650000000000 0.4677300000000000 O
atom_frac 0.9237040000000000 0.8294290000000000 0.4690430000000000 O
atom_frac 0.7880190000000000 0.4464210000000000 0.4587510000000000 O
atom_frac 0.5137800000000000 0.7728150000000000 0.4568540000000000 O
atom_frac 0.2895480000000000 0.5763360000000000 0.4707160000000001 O
atom_frac 0.3184280000000000 0.9629830000000000 0.5014820000000000 O
atom_frac 0.8171079999999999 0.4624620000000000 0.4984850000000001 O
atom_frac 0.4244040000000000 0.3294039999999999 0.4694140000000001 O