#=======================================================
# FHI-aims file: ./geometry.in
# Created using the Atomic Simulation Environment (ASE)
# Tue Feb 11 11:37:50 2020
#=======================================================
lattice_vector 6.5957600000000003 0.0000000000000000 0.0000000000000000 
lattice_vector -1.5450440000000001 7.2328489999999999 0.0000000000000000 
lattice_vector 0.0000000000000000 0.0000000000000000 146.0841589999999997 
atom_frac 0.7022389999999999 0.7714430000000000 0.2905950000000000 H
atom_frac 0.8527860000000000 0.7481320000000000 0.3284100000000000 H
atom_frac 0.3500430000000000 0.2473650000000000 0.2943120000000000 H
atom_frac 0.7536680000000000 0.3937020000000000 0.2775590000000000 H
atom_frac 0.7996330000000000 0.1252500000000000 0.3153460000000000 H
atom_frac 0.2988840000000000 0.6252560000000000 0.3073480000000000 H
atom_frac 0.5320430000000000 0.8299350000000000 0.2821840000000000 H
atom_frac 0.0220780000000000 0.6893629999999999 0.3199710000000000 H
atom_frac 0.5204460000000000 0.1889920000000000 0.3026950000000000 H
atom_frac 0.8566390000000000 0.5554530000000000 0.2863690000000000 H
atom_frac 0.6981000000000001 0.9643940000000000 0.3242250000000000 H
atom_frac 0.1956740000000000 0.4633950000000000 0.2985520000000000 H
atom_frac 0.2063670000000000 0.2733600000000000 0.3319750000000000 H
atom_frac 0.2593690000000000 0.8961910000000000 0.3450250000000000 H
atom_frac 0.0370650000000000 0.3321490000000000 0.3404140000000000 H
atom_frac 0.3610330000000000 0.0570980000000000 0.3361600000000000 H
atom_frac 0.7090190000000000 0.7739360000000000 0.3660590000000000 H
atom_frac 0.8595670000000000 0.7506260000000000 0.4038740000000000 H
atom_frac 0.3568230000000001 0.2498590000000000 0.3697760000000000 H
atom_frac 0.7604480000000000 0.3961950000000000 0.3530230000000000 H
atom_frac 0.8064130000000000 0.1277440000000000 0.3908100000000000 H
atom_frac 0.3056640000000000 0.6277500000000000 0.3828120000000000 H
atom_frac 0.5388230000000001 0.8324279999999999 0.3576480000000000 H
atom_frac 0.0288580000000000 0.6918570000000001 0.3954350000000000 H
atom_frac 0.5272260000000000 0.1914860000000000 0.3781590000000000 H
atom_frac 0.8634190000000002 0.5579470000000000 0.3618330000000000 H
atom_frac 0.7048810000000000 0.9668869999999999 0.3996890000000000 H
atom_frac 0.2024540000000000 0.4658890000000000 0.3740160000000000 H
atom_frac 0.2131470000000000 0.2758540000000000 0.4074390000000000 H
atom_frac 0.2661490000000000 0.8986850000000000 0.4204890000000000 H
atom_frac 0.0438450000000000 0.3346419999999999 0.4158770000000000 H
atom_frac 0.3678130000000000 0.0595920000000000 0.4116240000000000 H
atom_frac 0.7158010000000001 0.7764300000000000 0.4415370000000000 H
atom_frac 0.8663480000000000 0.7531200000000000 0.4793510000000000 H
atom_frac 0.3636040000000000 0.2523530000000000 0.4452540000000000 H
atom_frac 0.7672289999999999 0.3986900000000000 0.4285010000000000 H
atom_frac 0.8131939999999999 0.1302380000000000 0.4662879999999999 H
atom_frac 0.3124460000000000 0.6302440000000000 0.4582900000000000 H
atom_frac 0.5456050000000000 0.8349220000000001 0.4331260000000000 H
atom_frac 0.0356400000000000 0.6943510000000001 0.4709130000000000 H
atom_frac 0.5340080000000000 0.1939800000000000 0.4536370000000000 H
atom_frac 0.8702010000000000 0.5604410000000000 0.4373110000000000 H
atom_frac 0.7116620000000000 0.9693820000000000 0.4751670000000001 H
atom_frac 0.2092350000000000 0.4683830000000000 0.4494929999999999 H
atom_frac 0.2199280000000000 0.2783480000000000 0.4829170000000000 H
atom_frac 0.2729310000000000 0.9011790000000000 0.4959669999999999 H
atom_frac 0.0506270000000000 0.3371370000000000 0.4913550000000000 H
atom_frac 0.3745940000000000 0.0620860000000000 0.4871010000000001 H
atom_frac 0.7225810000000000 0.7789239999999999 0.5170010000000000 H
atom_frac 0.8731279999999999 0.7556140000000000 0.5548149999999999 H
atom_frac 0.3703850000000000 0.2548470000000000 0.5207170000000000 H
atom_frac 0.7740089999999998 0.4011830000000000 0.5039650000000000 H
atom_frac 0.8199740000000000 0.1327320000000000 0.5417520000000000 H
atom_frac 0.3192260000000000 0.6327380000000000 0.5337540000000000 H
atom_frac 0.5523850000000000 0.8374160000000000 0.5085900000000000 H
atom_frac 0.0424200000000000 0.6968450000000000 0.5463770000000000 H
atom_frac 0.5407880000000000 0.1964740000000000 0.5291010000000000 H
atom_frac 0.8769810000000000 0.5629340000000000 0.5127750000000000 H
atom_frac 0.7184420000000000 0.9718750000000000 0.5506300000000000 H
atom_frac 0.2160160000000000 0.4708770000000000 0.5249570000000000 H
atom_frac 0.2267090000000000 0.2808410000000000 0.5583810000000000 H
atom_frac 0.2797110000000000 0.9036729999999999 0.5714310000000000 H
atom_frac 0.0574070000000000 0.3396300000000000 0.5668190000000000 H
atom_frac 0.3813740000000000 0.0645800000000000 0.5625650000000000 H
atom_frac 0.7293620000000000 0.7814179999999999 0.5924779999999999 H
atom_frac 0.8799100000000000 0.7581080000000000 0.6302930000000000 H
atom_frac 0.3771659999999999 0.2573410000000000 0.5961950000000000 H
atom_frac 0.7807910000000000 0.4036770000000000 0.5794420000000000 H
atom_frac 0.8267560000000000 0.1352260000000000 0.6172290000000000 H
atom_frac 0.3260070000000000 0.6352320000000000 0.6092310000000000 H
atom_frac 0.5591660000000001 0.8399100000000000 0.5840680000000000 H
atom_frac 0.0492010000000000 0.6993390000000000 0.6218550000000000 H
atom_frac 0.5475690000000000 0.1989680000000000 0.6045779999999999 H
atom_frac 0.8837619999999999 0.5654280000000000 0.5882520000000000 H
atom_frac 0.7252240000000000 0.9743690000000000 0.6261080000000000 H
atom_frac 0.2227970000000000 0.4733710000000000 0.6004350000000001 H
atom_frac 0.2334900000000000 0.2833350000000000 0.6338580000000000 H
atom_frac 0.2864920000000000 0.9061669999999999 0.6469080000000000 H
atom_frac 0.0641880000000000 0.3421240000000000 0.6422970000000000 H
atom_frac 0.3881560000000000 0.0670740000000000 0.6380430000000000 H
atom_frac 0.7361420000000000 0.7839120000000001 0.6679420000000000 H
atom_frac 0.8866900000000000 0.7606010000000000 0.7057570000000000 H
atom_frac 0.3839460000000000 0.2598350000000000 0.6716590000000000 H
atom_frac 0.7875710000000000 0.4061710000000000 0.6549060000000000 H
atom_frac 0.8335359999999999 0.1377200000000000 0.6926930000000000 H
atom_frac 0.3327870000000000 0.6377250000000000 0.6846950000000001 H
atom_frac 0.5659470000000000 0.8424040000000000 0.6595310000000000 H
atom_frac 0.0559820000000000 0.7018320000000000 0.6973180000000000 H
atom_frac 0.5543490000000000 0.2014620000000000 0.6800420000000000 H
atom_frac 0.8905430000000000 0.5679219999999999 0.6637160000000000 H
atom_frac 0.7320040000000000 0.9768630000000000 0.7015720000000000 H
atom_frac 0.2295770000000000 0.4758650000000000 0.6758990000000000 H
atom_frac 0.2402700000000000 0.2858290000000000 0.7093220000000000 H
atom_frac 0.2932730000000000 0.9086600000000000 0.7223720000000000 H
atom_frac 0.0709680000000000 0.3446180000000000 0.7177610000000000 H
atom_frac 0.3949360000000000 0.0695670000000000 0.7135070000000000 H
atom_frac 0.5509510000000000 0.7262130000000000 0.2872780000000000 C
atom_frac 0.0037260000000000 0.7933220000000000 0.3250650000000000 C
atom_frac 0.5014080000000000 0.2926240000000000 0.2976020000000000 C
atom_frac 0.7207060000000000 0.4534080000000000 0.2841120000000000 C
atom_frac 0.8337010000000000 0.0661570000000000 0.3218990000000000 C
atom_frac 0.3316750000000001 0.5654600000000000 0.3007960000000000 C
atom_frac 0.0554070000000000 0.2281800000000000 0.3353200000000000 C
atom_frac 0.2253910000000000 0.9553350000000000 0.3384730000000000 C
atom_frac 0.5577309999999999 0.7287069999999999 0.3627420000000000 C
atom_frac 0.0105060000000000 0.7958150000000001 0.4005290000000000 C
atom_frac 0.5081890000000000 0.2951180000000000 0.3730660000000000 C
atom_frac 0.7274870000000000 0.4559020000000000 0.3595750000000000 C
atom_frac 0.8404820000000000 0.0686510000000000 0.3973620000000000 C
atom_frac 0.3384560000000000 0.5679530000000000 0.3762600000000000 C
atom_frac 0.0621870000000000 0.2306740000000000 0.4107840000000000 C
atom_frac 0.2321710000000000 0.9578280000000000 0.4139360000000000 C
atom_frac 0.5645120000000000 0.7312010000000001 0.4382190000000000 C
atom_frac 0.0172870000000000 0.7983090000000000 0.4760060000000000 C
atom_frac 0.5149700000000000 0.2976120000000000 0.4485440000000001 C
atom_frac 0.7342680000000000 0.4583960000000000 0.4350530000000000 C
atom_frac 0.8472630000000000 0.0711450000000000 0.4728400000000000 C
atom_frac 0.3452370000000000 0.5704470000000000 0.4517370000000001 C
atom_frac 0.0689690000000000 0.2331680000000000 0.4862620000000001 C
atom_frac 0.2389520000000000 0.9603220000000000 0.4894140000000000 C
atom_frac 0.5712930000000001 0.7336940000000000 0.5136830000000000 C
atom_frac 0.0240680000000000 0.8008029999999999 0.5514700000000000 C
atom_frac 0.5217500000000000 0.3001060000000000 0.5240070000000000 C
atom_frac 0.7410480000000000 0.4608900000000000 0.5105170000000000 C
atom_frac 0.8540430000000000 0.0736380000000000 0.5483040000000000 C
atom_frac 0.3520170000000000 0.5729410000000000 0.5272010000000000 C
atom_frac 0.0757490000000000 0.2356620000000000 0.5617259999999999 C
atom_frac 0.2457320000000000 0.9628160000000000 0.5648780000000000 C
atom_frac 0.5780740000000000 0.7361880000000000 0.5891610000000000 C
atom_frac 0.0308490000000000 0.8032970000000001 0.6269479999999999 C
atom_frac 0.5285320000000000 0.3025999999999999 0.5994850000000000 C
atom_frac 0.7478300000000000 0.4633840000000000 0.5859950000000000 C
atom_frac 0.8608250000000000 0.0761320000000000 0.6237819999999999 C
atom_frac 0.3587990000000000 0.5754350000000000 0.6026790000000000 C
atom_frac 0.0825300000000000 0.2381560000000000 0.6372030000000000 C
atom_frac 0.2525140000000000 0.9653100000000000 0.6403560000000000 C
atom_frac 0.5848540000000000 0.7386819999999999 0.6646250000000000 C
atom_frac 0.0376290000000000 0.8057910000000000 0.7024120000000000 C
atom_frac 0.5353120000000000 0.3050930000000000 0.6749490000000000 C
atom_frac 0.7546100000000000 0.4658780000000000 0.6614590000000000 C
atom_frac 0.8676050000000001 0.0786260000000000 0.6992460000000000 C
atom_frac 0.3655790000000000 0.5779290000000000 0.6781430000000001 C
atom_frac 0.0893110000000000 0.2406500000000000 0.7126670000000001 C
atom_frac 0.2592940000000000 0.9678040000000000 0.7158200000000000 C
atom_frac 0.5517919999999999 0.5474640000000000 0.2830650000000000 N
atom_frac 0.0022650000000000 0.9717810000000000 0.3208250000000000 N
atom_frac 0.5006380000000000 0.4714240000000000 0.3018280000000000 N
atom_frac 0.3843390000000000 0.7166630000000000 0.2939400000000000 N
atom_frac 0.6679210000000000 0.3021040000000000 0.2909530000000000 N
atom_frac 0.8879120000000000 0.2181420000000000 0.3286990000000000 N
atom_frac 0.3940510000000000 0.4732210000000000 0.2769260000000000 N
atom_frac 0.1594910000000000 0.0459580000000000 0.3146580000000000 N
atom_frac 0.6583700000000000 0.5456370000000000 0.3079680000000000 N
atom_frac 0.2267700000000000 0.8074270000000000 0.2919440000000000 N
atom_frac 0.3281990000000000 0.7120240000000000 0.3296620000000000 N
atom_frac 0.8255100000000000 0.2113600000000000 0.2929490000000000 N
atom_frac 0.0568280000000000 0.0497110000000000 0.3395600000000000 N
atom_frac 0.1712500000000000 0.8034000000000000 0.3316720000000000 N
atom_frac 0.8995710000000000 0.9755239999999999 0.3457130000000000 N
atom_frac 0.7309430000000000 0.3095080000000000 0.3307090000000000 N
atom_frac 0.5585730000000000 0.5499570000000000 0.3585290000000000 N
atom_frac 0.0090450000000000 0.9742749999999999 0.3962890000000000 N
atom_frac 0.5074180000000000 0.4739170000000000 0.3772920000000000 N
atom_frac 0.3911200000000000 0.7191570000000000 0.3694040000000000 N
atom_frac 0.6747010000000000 0.3045980000000000 0.3664170000000000 N
atom_frac 0.8946930000000000 0.2206350000000000 0.4041630000000000 N
atom_frac 0.4008310000000000 0.4757150000000000 0.3523900000000000 N
atom_frac 0.1662710000000000 0.0484510000000000 0.3901220000000000 N
atom_frac 0.6651500000000000 0.5481300000000000 0.3834320000000000 N
atom_frac 0.2335500000000000 0.8099210000000000 0.3674080000000000 N
atom_frac 0.3349790000000000 0.7145170000000000 0.4051260000000000 N
atom_frac 0.8322909999999999 0.2138540000000000 0.3684130000000000 N
atom_frac 0.0636080000000000 0.0522040000000000 0.4150240000000000 N
atom_frac 0.1780300000000000 0.8058940000000000 0.4071360000000000 N
atom_frac 0.9063510000000000 0.9780180000000001 0.4211770000000000 N
atom_frac 0.7377230000000000 0.3120020000000000 0.4061730000000000 N
atom_frac 0.5653540000000000 0.5524520000000001 0.4340070000000000 N
atom_frac 0.0158270000000000 0.9767690000000001 0.4717660000000000 N
atom_frac 0.5142000000000000 0.4764120000000000 0.4527700000000001 N
atom_frac 0.3979009999999999 0.7216510000000000 0.4448820000000000 N
atom_frac 0.6814829999999999 0.3070920000000000 0.4418950000000000 N
atom_frac 0.9014740000000000 0.2231290000000000 0.4796400000000000 N
atom_frac 0.4076120000000000 0.4782090000000000 0.4278670000000000 N
atom_frac 0.1730520000000000 0.0509450000000000 0.4655990000000000 N
atom_frac 0.6719309999999999 0.5506240000000000 0.4589090000000000 N
atom_frac 0.2403320000000000 0.8124150000000000 0.4428860000000000 N
atom_frac 0.3417610000000000 0.7170110000000000 0.4806039999999999 N
atom_frac 0.8390720000000000 0.2163480000000000 0.4438909999999999 N
atom_frac 0.0703900000000000 0.0546980000000000 0.4905020000000000 N
atom_frac 0.1848110000000000 0.8083880000000000 0.4826140000000000 N
atom_frac 0.9131330000000000 0.9805120000000001 0.4966550000000000 N
atom_frac 0.7445050000000000 0.3144960000000000 0.4816500000000001 N
atom_frac 0.5721340000000000 0.5549450000000000 0.5094710000000000 N
atom_frac 0.0226070000000000 0.9792630000000000 0.5472300000000000 N
atom_frac 0.5209800000000000 0.4789050000000000 0.5282340000000000 N
atom_frac 0.4046810000000000 0.7241450000000000 0.5203460000000000 N
atom_frac 0.6882630000000001 0.3095859999999999 0.5173590000000000 N
atom_frac 0.9082540000000000 0.2256230000000000 0.5551040000000000 N
atom_frac 0.4143930000000000 0.4807020000000000 0.5033310000000000 N
atom_frac 0.1798330000000000 0.0534390000000000 0.5410630000000000 N
atom_frac 0.6787119999999999 0.5531180000000000 0.5343730000000000 N
atom_frac 0.2471120000000000 0.8149090000000000 0.5183500000000000 N
atom_frac 0.3485410000000000 0.7195050000000000 0.5560680000000000 N
atom_frac 0.8458520000000000 0.2188420000000000 0.5193550000000000 N
atom_frac 0.0771700000000000 0.0571920000000000 0.5659660000000000 N
atom_frac 0.1915910000000000 0.8108810000000000 0.5580780000000000 N
atom_frac 0.9199130000000000 0.9830050000000000 0.5721190000000000 N
atom_frac 0.7512850000000000 0.3169900000000000 0.5571140000000000 N
atom_frac 0.5789160000000000 0.5574389999999999 0.5849490000000001 N
atom_frac 0.0293880000000000 0.9817570000000000 0.6227080000000000 N
atom_frac 0.5277610000000000 0.4813990000000000 0.6037110000000000 N
atom_frac 0.4114630000000000 0.7266390000000000 0.5958230000000000 N
atom_frac 0.6950440000000000 0.3120800000000000 0.5928360000000000 N
atom_frac 0.9150360000000000 0.2281170000000000 0.6305820000000000 N
atom_frac 0.4211740000000000 0.4831960000000000 0.5788090000000000 N
atom_frac 0.1866140000000000 0.0559330000000000 0.6165410000000000 N
atom_frac 0.6854930000000000 0.5556120000000000 0.6098510000000000 N
atom_frac 0.2538930000000000 0.8174030000000000 0.5938270000000000 N
atom_frac 0.3553220000000000 0.7219989999999999 0.6315460000000001 N
atom_frac 0.8526339999999999 0.2213360000000000 0.5948320000000000 N
atom_frac 0.0839510000000000 0.0596860000000000 0.6414430000000000 N
atom_frac 0.1983730000000000 0.8133749999999998 0.6335550000000000 N
atom_frac 0.9266940000000001 0.9854990000000000 0.6475959999999999 N
atom_frac 0.7580660000000000 0.3194839999999999 0.6325920000000000 N
atom_frac 0.5856960000000000 0.5599330000000001 0.6604120000000000 N
atom_frac 0.0361680000000000 0.9842510000000000 0.6981720000000000 N
atom_frac 0.5345410000000000 0.4838930000000000 0.6791750000000000 N
atom_frac 0.4182430000000000 0.7291320000000000 0.6712870000000000 N
atom_frac 0.7018240000000001 0.3145740000000001 0.6683000000000000 N
atom_frac 0.9218160000000001 0.2306110000000000 0.7060460000000000 N
atom_frac 0.4279540000000000 0.4856900000000001 0.6542730000000000 N
atom_frac 0.1933940000000000 0.0584270000000000 0.6920050000000000 N
atom_frac 0.6922730000000000 0.5581060000000000 0.6853150000000000 N
atom_frac 0.2606730000000000 0.8198960000000000 0.6692910000000000 N
atom_frac 0.3621020000000000 0.7244930000000001 0.7070100000000000 N
atom_frac 0.8594140000000000 0.2238300000000000 0.6702960000000000 N
atom_frac 0.0907320000000000 0.0621800000000000 0.7169070000000000 N
atom_frac 0.2051530000000000 0.8158690000000001 0.7090190000000000 N
atom_frac 0.9334740000000000 0.9879930000000000 0.7230600000000000 N
atom_frac 0.7648460000000000 0.3219770000000000 0.7080560000000000 N
atom_frac 0.2624250000000000 0.5663610000000000 0.2754120000000000 O
atom_frac 0.2913050000000000 0.9530080000000000 0.3131440000000000 O
atom_frac 0.7899850000000000 0.4524860000000000 0.3094680000000000 O
atom_frac 0.3972810000000001 0.3194280000000000 0.2738150000000000 O
atom_frac 0.1556400000000000 0.1995140000000000 0.3115330000000000 O
atom_frac 0.6551709999999999 0.6994300000000000 0.3110920000000000 O
atom_frac 0.2624230000000000 0.9362940000000000 0.2864100000000000 O
atom_frac 0.2914860000000000 0.5826020000000000 0.3241700000000000 O
atom_frac 0.7898060000000000 0.0824430000000000 0.2984690000000000 O
atom_frac 0.0621050000000000 0.7541490000000000 0.2962250000000000 O
atom_frac 0.9902069999999999 0.2646690000000000 0.2886820000000000 O
atom_frac 0.5656930000000000 0.2561780000000000 0.3264830000000000 O
atom_frac 0.7677570000000000 0.0684840000000000 0.3472280000000000 O
atom_frac 0.9033620000000000 0.8219470000000000 0.3488380000000000 O
atom_frac 0.7676780000000000 0.4389400000000000 0.3362150000000000 O
atom_frac 0.4934390000000000 0.7653329999999999 0.3338890000000000 O
atom_frac 0.2692050000000000 0.5688540000000000 0.3508760000000000 O
atom_frac 0.2980850000000000 0.9555010000000000 0.3886070000000000 O
atom_frac 0.7967649999999999 0.4549800000000000 0.3849320000000000 O
atom_frac 0.4040610000000000 0.3219220000000000 0.3492790000000000 O
atom_frac 0.1624200000000000 0.2020080000000000 0.3869970000000000 O
atom_frac 0.6619510000000000 0.7019240000000000 0.3865560000000000 O
atom_frac 0.2692030000000000 0.9387880000000000 0.3618740000000000 O
atom_frac 0.2982660000000000 0.5850959999999999 0.3996340000000000 O
atom_frac 0.7965869999999999 0.0849360000000000 0.3739330000000000 O
atom_frac 0.0688850000000000 0.7566420000000000 0.3716890000000000 O
atom_frac 0.9969870000000001 0.2671630000000000 0.3641460000000000 O
atom_frac 0.5724730000000000 0.2586720000000000 0.4019460000000000 O
atom_frac 0.7745370000000000 0.0709780000000000 0.4226910000000000 O
atom_frac 0.9101420000000001 0.8244410000000000 0.4243020000000000 O
atom_frac 0.7744579999999999 0.4414340000000000 0.4116790000000000 O
atom_frac 0.5002190000000000 0.7678270000000001 0.4093520000000000 O
atom_frac 0.2759860000000000 0.5713490000000000 0.4263530000000000 O
atom_frac 0.3048660000000000 0.9579950000000000 0.4640850000000000 O
atom_frac 0.8035460000000000 0.4574740000000000 0.4604100000000000 O
atom_frac 0.4108430000000000 0.3244160000000000 0.4247560000000000 O
atom_frac 0.1692020000000000 0.2045020000000000 0.4624750000000000 O
atom_frac 0.6687320000000001 0.7044180000000000 0.4620339999999999 O
atom_frac 0.2759850000000000 0.9412820000000000 0.4373520000000000 O
atom_frac 0.3050470000000000 0.5875899999999999 0.4751120000000000 O
atom_frac 0.8033680000000000 0.0874310000000000 0.4494110000000000 O
atom_frac 0.0756660000000000 0.7591360000000000 0.4471670000000000 O
atom_frac 0.0037690000000000 0.2696570000000000 0.4396230000000000 O
atom_frac 0.5792550000000000 0.2611660000000000 0.4774240000000000 O
atom_frac 0.7813190000000000 0.0734720000000000 0.4981690000000000 O
atom_frac 0.9169230000000000 0.8269350000000000 0.4997799999999999 O
atom_frac 0.7812390000000000 0.4439280000000000 0.4871570000000000 O
atom_frac 0.5070000000000000 0.7703210000000000 0.4848299999999999 O
atom_frac 0.2827660000000000 0.5738420000000000 0.5018170000000000 O
atom_frac 0.3116470000000000 0.9604890000000000 0.5395489999999999 O
atom_frac 0.8103260000000000 0.4599680000000000 0.5358740000000000 O
atom_frac 0.4176230000000000 0.3269090000000000 0.5002200000000000 O
atom_frac 0.1759820000000000 0.2069960000000000 0.5379380000000000 O
atom_frac 0.6755120000000000 0.7069110000000000 0.5374980000000000 O
atom_frac 0.2827650000000000 0.9437759999999999 0.5128160000000000 O
atom_frac 0.3118270000000000 0.5900830000000000 0.5505750000000000 O
atom_frac 0.8101480000000000 0.0899240000000000 0.5248750000000000 O
atom_frac 0.0824470000000000 0.7616300000000000 0.5226310000000000 O
atom_frac 0.0105490000000000 0.2721510000000000 0.5150870000000000 O
atom_frac 0.5860350000000000 0.2636600000000000 0.5528880000000000 O
atom_frac 0.7880990000000000 0.0759650000000000 0.5736329999999999 O
atom_frac 0.9237040000000000 0.8294290000000000 0.5752440000000000 O
atom_frac 0.7880190000000000 0.4464210000000000 0.5626200000000000 O
atom_frac 0.5137800000000000 0.7728150000000000 0.5602940000000000 O
atom_frac 0.2895480000000000 0.5763360000000000 0.5772950000000000 O
atom_frac 0.3184280000000000 0.9629830000000000 0.6150270000000000 O
atom_frac 0.8171079999999999 0.4624620000000000 0.6113510000000000 O
atom_frac 0.4244040000000000 0.3294039999999999 0.5756980000000000 O
atom_frac 0.1827630000000000 0.2094900000000000 0.6134160000000000 O
atom_frac 0.6822940000000000 0.7094050000000000 0.6129760000000000 O
atom_frac 0.2895460000000000 0.9462699999999999 0.5882940000000000 O
atom_frac 0.3186090000000000 0.5925780000000000 0.6260530000000000 O
atom_frac 0.8169300000000000 0.0924180000000000 0.6003520000000000 O
atom_frac 0.0892280000000000 0.7641239999999999 0.5981090000000000 O
atom_frac 0.0173300000000000 0.2746450000000000 0.5905650000000000 O
atom_frac 0.5928160000000000 0.2661540000000000 0.6283660000000000 O
atom_frac 0.7948800000000000 0.0784590000000000 0.6491110000000000 O
atom_frac 0.9304849999999999 0.8319230000000000 0.6507210000000000 O
atom_frac 0.7948009999999999 0.4489160000000000 0.6380980000000001 O
atom_frac 0.5205620000000000 0.7753090000000000 0.6357720000000000 O
atom_frac 0.2963280000000000 0.5788300000000000 0.6527590000000000 O
atom_frac 0.3252080000000000 0.9654770000000000 0.6904910000000000 O
atom_frac 0.8238879999999998 0.4649550000000000 0.6868150000000000 O
atom_frac 0.4311850000000000 0.3318970000000000 0.6511620000000000 O
atom_frac 0.1895430000000000 0.2119840000000000 0.6888800000000000 O
atom_frac 0.6890740000000000 0.7118989999999999 0.6884400000000001 O
atom_frac 0.2963260000000000 0.9487630000000000 0.6637580000000000 O
atom_frac 0.3253889999999999 0.5950710000000000 0.7015169999999999 O
atom_frac 0.8237100000000001 0.0949120000000000 0.6758160000000000 O
atom_frac 0.0960080000000000 0.7666180000000001 0.6735719999999999 O
atom_frac 0.0241100000000000 0.2771390000000000 0.6660290000000000 O
atom_frac 0.5995970000000000 0.2686480000000000 0.7038300000000000 O
atom_frac 0.8016600000000002 0.0809530000000000 0.7245750000000000 O
atom_frac 0.9372650000000000 0.8344160000000000 0.7261850000000000 O
atom_frac 0.8015810000000000 0.4514090000000000 0.7135620000000000 O
atom_frac 0.5273420000000000 0.7778020000000000 0.7112360000000000 O
