#=======================================================
# FHI-aims file: ./geometry.in
# Created using the Atomic Simulation Environment (ASE)
# Tue Feb 11 11:38:02 2020
#=======================================================
lattice_vector 6.5957600000000003 0.0000000000000000 0.0000000000000000 
lattice_vector -1.5450440000000001 7.2328489999999999 0.0000000000000000 
lattice_vector 0.0000000000000000 0.0000000000000000 113.0099040000000059 
atom_frac 0.7022389999999999 0.7714430000000000 0.3756430000000000 H
atom_frac 0.8527860000000000 0.7481320000000000 0.4245240000000000 H
atom_frac 0.3500430000000000 0.2473650000000000 0.3804470000000000 H
atom_frac 0.7536680000000000 0.3937020000000000 0.3587910000000000 H
atom_frac 0.7996330000000000 0.1252500000000000 0.4076370000000000 H
atom_frac 0.2988840000000000 0.6252560000000000 0.3972990000000000 H
atom_frac 0.5320430000000000 0.8299350000000000 0.3647700000000000 H
atom_frac 0.0220780000000000 0.6893629999999999 0.4136160000000000 H
atom_frac 0.5204460000000000 0.1889920000000000 0.3912840000000000 H
atom_frac 0.8566390000000000 0.5554530000000000 0.3701800000000000 H
atom_frac 0.6981000000000001 0.9643940000000000 0.4191150000000000 H
atom_frac 0.1956740000000000 0.4633950000000000 0.3859280000000000 H
atom_frac 0.2063670000000000 0.2733600000000000 0.4291330000000000 H
atom_frac 0.2593690000000000 0.8961910000000000 0.4460020000000000 H
atom_frac 0.0370650000000000 0.3321490000000000 0.4400410000000000 H
atom_frac 0.3610330000000000 0.0570980000000000 0.4345430000000000 H
atom_frac 0.7090190000000000 0.7739360000000000 0.4731930000000000 H
atom_frac 0.8595670000000000 0.7506260000000000 0.5220740000000000 H
atom_frac 0.3568230000000001 0.2498590000000000 0.4779970000000000 H
atom_frac 0.7604480000000000 0.3961950000000000 0.4563410000000000 H
atom_frac 0.8064130000000000 0.1277440000000000 0.5051870000000001 H
atom_frac 0.3056640000000000 0.6277500000000000 0.4948480000000000 H
atom_frac 0.5388230000000001 0.8324279999999999 0.4623200000000000 H
atom_frac 0.0288580000000000 0.6918570000000001 0.5111660000000000 H
atom_frac 0.5272260000000000 0.1914860000000000 0.4888339999999999 H
atom_frac 0.8634190000000002 0.5579470000000000 0.4677300000000000 H
atom_frac 0.7048810000000000 0.9668869999999999 0.5166650000000000 H
atom_frac 0.2024540000000000 0.4658890000000000 0.4834780000000000 H
atom_frac 0.2131470000000000 0.2758540000000000 0.5266830000000000 H
atom_frac 0.2661490000000000 0.8986850000000000 0.5435520000000000 H
atom_frac 0.0438450000000000 0.3346419999999999 0.5375910000000000 H
atom_frac 0.3678130000000000 0.0595920000000000 0.5320920000000000 H
atom_frac 0.7158010000000001 0.7764300000000000 0.5707600000000000 H
atom_frac 0.8663480000000000 0.7531200000000000 0.6196420000000000 H
atom_frac 0.3636040000000000 0.2523530000000000 0.5755650000000000 H
atom_frac 0.7672289999999999 0.3986900000000000 0.5539090000000000 H
atom_frac 0.8131939999999999 0.1302380000000000 0.6027550000000000 H
atom_frac 0.3124460000000000 0.6302440000000000 0.5924160000000002 H
atom_frac 0.5456050000000000 0.8349220000000001 0.5598880000000001 H
atom_frac 0.0356400000000000 0.6943510000000001 0.6087340000000000 H
atom_frac 0.5340080000000000 0.1939800000000000 0.5864010000000000 H
atom_frac 0.8702010000000000 0.5604410000000000 0.5652970000000000 H
atom_frac 0.7116620000000000 0.9693820000000000 0.6142320000000000 H
atom_frac 0.2092350000000000 0.4683830000000000 0.5810450000000000 H
atom_frac 0.2199280000000000 0.2783480000000000 0.6242500000000000 H
atom_frac 0.2729310000000000 0.9011790000000000 0.6411200000000000 H
atom_frac 0.0506270000000000 0.3371370000000000 0.6351580000000000 H
atom_frac 0.3745940000000000 0.0620860000000000 0.6296600000000000 H
atom_frac 0.5509510000000000 0.7262130000000000 0.3713540000000000 C
atom_frac 0.0037260000000000 0.7933220000000000 0.4202000000000000 C
atom_frac 0.5014080000000000 0.2926240000000000 0.3847000000000000 C
atom_frac 0.7207060000000000 0.4534080000000000 0.3672620000000000 C
atom_frac 0.8337010000000000 0.0661570000000000 0.4161080000000000 C
atom_frac 0.3316750000000001 0.5654600000000000 0.3888290000000000 C
atom_frac 0.0554070000000000 0.2281800000000000 0.4334570000000000 C
atom_frac 0.2253910000000000 0.9553350000000000 0.4375320000000000 C
atom_frac 0.5577309999999999 0.7287069999999999 0.4689040000000000 C
atom_frac 0.0105060000000000 0.7958150000000001 0.5177500000000000 C
atom_frac 0.5081890000000000 0.2951180000000000 0.4822500000000000 C
atom_frac 0.7274870000000000 0.4559020000000000 0.4648110000000000 C
atom_frac 0.8404820000000000 0.0686510000000000 0.5136570000000000 C
atom_frac 0.3384560000000000 0.5679530000000000 0.4863780000000000 C
atom_frac 0.0621870000000000 0.2306740000000000 0.5310070000000000 C
atom_frac 0.2321710000000000 0.9578280000000000 0.5350819999999999 C
atom_frac 0.5645120000000000 0.7312010000000001 0.5664720000000000 C
atom_frac 0.0172870000000000 0.7983090000000000 0.6153180000000000 C
atom_frac 0.5149700000000000 0.2976120000000000 0.5798170000000000 C
atom_frac 0.7342680000000000 0.4583960000000000 0.5623790000000000 C
atom_frac 0.8472630000000000 0.0711450000000000 0.6112250000000000 C
atom_frac 0.3452370000000000 0.5704470000000000 0.5839460000000000 C
atom_frac 0.0689690000000000 0.2331680000000000 0.6285740000000000 C
atom_frac 0.2389520000000000 0.9603220000000000 0.6326490000000001 C
atom_frac 0.5517919999999999 0.5474640000000000 0.3659090000000000 N
atom_frac 0.0022650000000000 0.9717810000000000 0.4147200000000000 N
atom_frac 0.5006380000000000 0.4714240000000000 0.3901630000000000 N
atom_frac 0.3843390000000000 0.7166630000000000 0.3799670000000000 N
atom_frac 0.6679210000000000 0.3021040000000000 0.3761050000000000 N
atom_frac 0.8879120000000000 0.2181420000000000 0.4248980000000000 N
atom_frac 0.3940510000000000 0.4732210000000000 0.3579730000000000 N
atom_frac 0.1594910000000000 0.0459580000000000 0.4067480000000000 N
atom_frac 0.6583700000000000 0.5456370000000000 0.3981000000000000 N
atom_frac 0.2267700000000000 0.8074270000000000 0.3773870000000000 N
atom_frac 0.3281990000000000 0.7120240000000000 0.4261440000000000 N
atom_frac 0.8255100000000000 0.2113600000000000 0.3786860000000000 N
atom_frac 0.0568280000000000 0.0497110000000000 0.4389380000000000 N
atom_frac 0.1712500000000000 0.8034000000000000 0.4287420000000000 N
atom_frac 0.8995710000000000 0.9755239999999999 0.4468920000000000 N
atom_frac 0.7309430000000000 0.3095080000000000 0.4274959999999999 N
atom_frac 0.5585730000000000 0.5499570000000000 0.4634590000000000 N
atom_frac 0.0090450000000000 0.9742749999999999 0.5122690000000000 N
atom_frac 0.5074180000000000 0.4739170000000000 0.4877130000000000 N
atom_frac 0.3911200000000000 0.7191570000000000 0.4775170000000000 N
atom_frac 0.6747010000000000 0.3045980000000000 0.4736550000000000 N
atom_frac 0.8946930000000000 0.2206350000000000 0.5224480000000000 N
atom_frac 0.4008310000000000 0.4757150000000000 0.4555230000000000 N
atom_frac 0.1662710000000000 0.0484510000000000 0.5042970000000000 N
atom_frac 0.6651500000000000 0.5481300000000000 0.4956490000000000 N
atom_frac 0.2335500000000000 0.8099210000000000 0.4749360000000000 N
atom_frac 0.3349790000000000 0.7145170000000000 0.5236930000000000 N
atom_frac 0.8322909999999999 0.2138540000000000 0.4762350000000000 N
atom_frac 0.0636080000000000 0.0522040000000000 0.5364880000000000 N
atom_frac 0.1780300000000000 0.8058940000000000 0.5262910000000000 N
atom_frac 0.9063510000000000 0.9780180000000001 0.5444420000000000 N
atom_frac 0.7377230000000000 0.3120020000000000 0.5250460000000000 N
atom_frac 0.5653540000000000 0.5524520000000001 0.5610260000000000 N
atom_frac 0.0158270000000000 0.9767690000000001 0.6098370000000000 N
atom_frac 0.5142000000000000 0.4764120000000000 0.5852800000000000 N
atom_frac 0.3979009999999999 0.7216510000000000 0.5750840000000000 N
atom_frac 0.6814829999999999 0.3070920000000000 0.5712230000000000 N
atom_frac 0.9014740000000000 0.2231290000000000 0.6200150000000000 N
atom_frac 0.4076120000000000 0.4782090000000000 0.5530900000000000 N
atom_frac 0.1730520000000000 0.0509450000000000 0.6018650000000000 N
atom_frac 0.6719309999999999 0.5506240000000000 0.5932170000000000 N
atom_frac 0.2403320000000000 0.8124150000000000 0.5725040000000000 N
atom_frac 0.3417610000000000 0.7170110000000000 0.6212610000000000 N
atom_frac 0.8390720000000000 0.2163480000000000 0.5738030000000001 N
atom_frac 0.0703900000000000 0.0546980000000000 0.6340550000000000 N
atom_frac 0.1848110000000000 0.8083880000000000 0.6238590000000001 N
atom_frac 0.9131330000000000 0.9805120000000001 0.6420090000000001 N
atom_frac 0.7445050000000000 0.3144960000000000 0.6226130000000000 N
atom_frac 0.2624250000000000 0.5663610000000000 0.3560150000000000 O
atom_frac 0.2913050000000000 0.9530080000000000 0.4047900000000000 O
atom_frac 0.7899850000000000 0.4524860000000000 0.4000390000000000 O
atom_frac 0.3972810000000001 0.3194280000000000 0.3539510000000000 O
atom_frac 0.1556400000000000 0.1995140000000000 0.4027080000000000 O
atom_frac 0.6551709999999999 0.6994300000000000 0.4021390000000000 O
atom_frac 0.2624230000000000 0.9362940000000000 0.3702330000000000 O
atom_frac 0.2914860000000000 0.5826020000000000 0.4190440000000000 O
atom_frac 0.7898060000000000 0.0824430000000000 0.3858210000000000 O
atom_frac 0.0621050000000000 0.7541490000000000 0.3829210000000000 O
atom_frac 0.9902069999999999 0.2646690000000000 0.3731690000000000 O
atom_frac 0.5656930000000000 0.2561780000000000 0.4220330000000000 O
atom_frac 0.7677570000000000 0.0684840000000000 0.4488500000000000 O
atom_frac 0.9033620000000000 0.8219470000000000 0.4509320000000000 O
atom_frac 0.7676780000000000 0.4389400000000000 0.4346140000000000 O
atom_frac 0.4934390000000000 0.7653329999999999 0.4316070000000000 O
atom_frac 0.2692050000000000 0.5688540000000000 0.4535650000000000 O
atom_frac 0.2980850000000000 0.9555010000000000 0.5023400000000000 O
atom_frac 0.7967649999999999 0.4549800000000000 0.4975890000000000 O
atom_frac 0.4040610000000000 0.3219220000000000 0.4515010000000000 O
atom_frac 0.1624200000000000 0.2020080000000000 0.5002580000000000 O
atom_frac 0.6619510000000000 0.7019240000000000 0.4996890000000000 O
atom_frac 0.2692030000000000 0.9387880000000000 0.4677830000000000 O
atom_frac 0.2982660000000000 0.5850959999999999 0.5165930000000000 O
atom_frac 0.7965869999999999 0.0849360000000000 0.4833710000000000 O
atom_frac 0.0688850000000000 0.7566420000000000 0.4804700000000000 O
atom_frac 0.9969870000000001 0.2671630000000000 0.4707190000000000 O
atom_frac 0.5724730000000000 0.2586720000000000 0.5195830000000000 O
atom_frac 0.7745370000000000 0.0709780000000000 0.5463990000000000 O
atom_frac 0.9101420000000001 0.8244410000000000 0.5484810000000000 O
atom_frac 0.7744579999999999 0.4414340000000000 0.5321640000000000 O
atom_frac 0.5002190000000000 0.7678270000000001 0.5291560000000000 O
atom_frac 0.2759860000000000 0.5713490000000000 0.5511330000000000 O
atom_frac 0.3048660000000000 0.9579950000000000 0.5999070000000001 O
atom_frac 0.8035460000000000 0.4574740000000000 0.5951560000000000 O
atom_frac 0.4108430000000000 0.3244160000000000 0.5490680000000000 O
atom_frac 0.1692020000000000 0.2045020000000000 0.5978260000000000 O
atom_frac 0.6687320000000001 0.7044180000000000 0.5972560000000000 O
atom_frac 0.2759850000000000 0.9412820000000000 0.5653500000000000 O
atom_frac 0.3050470000000000 0.5875899999999999 0.6141610000000000 O
atom_frac 0.8033680000000000 0.0874310000000000 0.5809380000000000 O
atom_frac 0.0756660000000000 0.7591360000000000 0.5780380000000001 O
atom_frac 0.0037690000000000 0.2696570000000000 0.5682870000000000 O
atom_frac 0.5792550000000000 0.2611660000000000 0.6171500000000000 O
atom_frac 0.7813190000000000 0.0734720000000000 0.6439670000000000 O
atom_frac 0.9169230000000000 0.8269350000000000 0.6460490000000000 O
atom_frac 0.7812390000000000 0.4439280000000000 0.6297310000000000 O
atom_frac 0.5070000000000000 0.7703210000000000 0.6267239999999999 O
