#=======================================================
# FHI-aims file: output/HOJCOB.001.6.0.in
# Created using the Atomic Simulation Environment (ASE)
# Tue Feb 11 09:01:59 2020
#=======================================================
lattice_vector 6.5957600000000003 0.0000000000000000 0.0000000000000000 
lattice_vector -1.5450440000000001 7.2328489999999999 0.0000000000000000 
lattice_vector 0.0000000000000000 0.0000000000000000 146.0841589999999997 
atom 3.4398865281479996 5.5797307311069995 42.4513261846050014 H
atom 4.4688749295520003 5.4111257880680004 47.9754986571899948 H
atom 1.9266098086200001 1.7891536928850000 42.9943210036080004 H
atom 4.3627263347919998 2.8475871169980000 40.5469730878809997 H
atom 5.0806705950800009 0.9059143372500000 46.0670552040140038 H
atom 1.0053191005759998 4.5223822343440006 44.8986741003320020 H
atom 2.2269418455400003 6.0027945348150000 41.2226123232560013 H
atom -0.9194749776919999 4.9860584851869998 46.7426944393889983 H
atom 3.1407359533119998 1.3669505982079999 44.2189445085049968 H
atom 4.7919859257080004 4.0175076755969998 41.8339745286709999 H
atom 3.1144688926640010 6.9753161785059996 47.3641364517749963 H
atom 0.5746530778599999 3.3516660623550001 43.6137178377680002 H
atom 0.9387939760800001 1.9771716026399999 48.4962886840250036 H
atom 0.3260811480360002 6.4820141781589999 50.4026869589750035 H
atom -0.2687129751560001 2.4023835625009999 49.7290929018260002 H
atom 2.2930680977680002 0.4129812122020000 49.1076508894400021 H
atom 3.4807539862559995 5.5977622236639997 53.4754211593809998 H
atom 4.5097474383760003 5.4291645134740003 58.9995936319660004 H
atom 1.9674757216840002 1.8071924182910000 54.0184159783839988 H
atom 4.4035937929000006 2.8656186095550003 51.5710680626569982 H
atom 5.1215365081440005 0.9239530626560000 57.0911501787899951 H
atom 1.0461850136399997 4.5404209597500005 55.9227690751080004 H
atom 2.2678093036480007 6.0208260273719993 52.2467072980319998 H
atom -0.8786090646280001 5.0040972105930006 57.7667894141649967 H
atom 3.1816018663760000 1.3849893236139998 55.2430394832810023 H
atom 4.8328518387720010 4.0355464010029998 52.8580695034470054 H
atom 3.1553429465319995 6.9933476710629998 58.3882314265510018 H
atom 0.6155189909239999 3.3697047877610000 54.6378128125439986 H
atom 0.9796598891440002 1.9952103280459998 59.5203836588010020 H
atom 0.3669470611000002 6.5000529035649999 61.4267819337510019 H
atom -0.2278455170480000 2.4204150550579997 60.7530417924429997 H
atom 2.3339340108319999 0.4310199376080000 60.1317458642160005 H
atom 3.5216330908400009 5.6158009490699996 64.5015613123830036 H
atom 4.5506199472000004 5.4472032388800002 70.0255877008089982 H
atom 2.0083482305080000 1.8252311436969999 65.0445561313860026 H
atom 4.4444647566800004 2.8836645678099999 62.5972082156590020 H
atom 5.1624090169679997 0.9419917880619999 68.1172903317919918 H
atom 1.0870641182240000 4.5584596851560004 66.9489092281099971 H
atom 2.3086884082320003 6.0388647527780002 63.2728474510340035 H
atom -0.8377299600440001 5.0221359359990005 68.7929295671670076 H
atom 3.2224809709600004 1.4030280490200000 66.2691796362829990 H
atom 4.8737309433560005 4.0535851264089997 63.8842096564490021 H
atom 3.1962139103120002 7.0113936293179995 69.4143715795530056 H
atom 0.6563914997480000 3.3877435131670000 65.6638068813869893 H
atom 1.0205323979680001 2.0132490534519998 70.5465238118029987 H
atom 0.4078261656839999 6.5180916289709998 72.4529220867529915 H
atom -0.1869679575080001 2.4384610133130002 71.7791819454450035 H
atom 2.3748065196560000 0.4490586630140000 71.1577399330590055 H
atom 3.5624990039040001 5.6338396744759995 75.5256562871590091 H
atom 4.5914858602640001 5.4652419642860002 81.0496826755849895 H
atom 2.0492207393320001 1.8432698691029998 76.0685050220029950 H
atom 4.4853322147879995 2.9016960603670001 73.6213031904350004 H
atom 5.2032749300320003 0.9600305134679999 79.1413853065679973 H
atom 1.1279300312880001 4.5764984105620004 77.9730042028859884 H
atom 2.3495543212959999 6.0569034781840001 74.2969424258100020 H
atom -0.7968640469800001 5.0401746614050005 79.8170245419429989 H
atom 3.2633468840240005 1.4210667744259999 77.2932746110590045 H
atom 4.9145984014640005 4.0716166189659999 74.9083046312249934 H
atom 3.2370813684200006 7.0294251218750006 80.4383204701699981 H
atom 0.6972640085720000 3.4057822385729999 76.6879018561629948 H
atom 1.0614064518360000 2.0312805460090000 81.5706187865790042 H
atom 0.4486920787479999 6.5361303543769997 83.4770170615289970 H
atom -0.1461004994000000 2.4564925058700000 82.8032769202209948 H
atom 2.4156724327200001 0.4670973884200000 82.1818349078349968 H
atom 3.6033715127279997 5.6518783998819995 86.5516503560019856 H
atom 4.6323649648479996 5.4832806896920001 92.0758228285869933 H
atom 2.0900932481559997 1.8613085945089998 87.0946451750049988 H
atom 4.5262113193720008 2.9197347857730001 84.6472972592780053 H
atom 5.2441540346160007 0.9780692388740001 90.1673793754110022 H
atom 1.1688025401119999 4.5945371359680003 88.9989982717289934 H
atom 2.3904268301200005 6.0749422035900000 85.3230825788120057 H
atom -0.7559915381560001 5.0582133868110004 90.8431646949450027 H
atom 3.3042193928479997 1.4391054998320001 88.3192686799019953 H
atom 4.9554709102879997 4.0896553443719998 85.9342987000679983 H
atom 3.2779604730039997 7.0474638472810005 91.4644606231720019 H
atom 0.7381365173959999 3.4238209639789998 87.7140420091650128 H
atom 1.1022789606600001 2.0493192714149999 92.5966128554220091 H
atom 0.4895645875720003 6.5541690797829997 94.5030111303720020 H
atom -0.1052279905760000 2.4745312312759999 93.8294170732229986 H
atom 2.4565515373040001 0.4851361138260000 93.2079750608370006 H
atom 3.6442374257919998 5.6699171252880003 97.5757453307780054 H
atom 4.6732324229560005 5.5013121822489994 103.0999178033629988 H
atom 2.1309591612200003 1.8793473199149999 98.1187401497810043 H
atom 4.5670772324360005 2.9377735111790000 95.6713922340539966 H
atom 5.2850199476800004 0.9961079642800000 101.1914743501869935 H
atom 1.2096699982200001 4.6125686285249996 100.0230932465050131 H
atom 2.4312993389439996 6.0929809289960000 96.3470314694289982 H
atom -0.7151174842880000 5.0762448793679997 101.8671135855619951 H
atom 3.3450853059119998 1.4571442252380000 99.3433636546780008 H
atom 4.9963434191119998 4.1076940697779998 96.9583936748439896 H
atom 3.3188263860679998 7.0655025726870004 102.4885555979479932 H
atom 0.7790024304600000 3.4418596893849998 98.7381369839410041 H
atom 1.1431448737240002 2.0673579968209999 103.6207078301980005 H
atom 0.5304386414400000 6.5722005723399999 105.5271061051480075 H
atom -0.0643620775120000 2.4925699566819999 104.8535120479990042 H
atom 2.4974189954120005 0.5031676063830001 104.2320700356130061 H
atom 2.5119095293879998 5.2525889708369995 41.9667650292019943 C
atom -1.2011415944079999 5.7379782343779997 47.4868471453349983 C
atom 2.8550498746240001 2.1165052057759999 43.4749378867179956 C
atom 4.0530684966079997 3.2794315993919998 41.5042625818079998 C
atom 5.3966762318520001 0.4785035912930000 47.0243446979409967 C
atom 1.3139881177600004 4.0898867955400000 43.9415306905640008 C
atom 0.0129031344000000 1.6503914848199999 48.9849401958800001 C
atom 0.0105903324200000 6.9097937994150005 49.4455435492070023 C
atom 2.5527754424519999 5.2706276962429994 52.9908600039779998 C
atom -1.1602741363000002 5.7560097269349999 58.5109421201110038 C
atom 2.8959223834480001 2.1345439311819998 54.4990328614940012 C
atom 4.0939410054319998 3.2974703247979997 52.5282114724249993 C
atom 5.4375487406760001 0.4965423166990000 58.0482935885579963 C
atom 1.3548621716279998 4.1079182880970002 54.9656256653399993 C
atom 0.0537690474640000 1.6684302102259998 60.0090351706559986 C
atom 0.0514577905279999 6.9278252919719998 60.4694924398240019 C
atom 2.5936479512760000 5.2886664216490002 64.0168540728210047 C
atom -1.1194016274760001 5.7740484523409998 69.5369361889540016 C
atom 2.9367948922720002 2.1525826565879997 65.5251730144960050 C
atom 4.1348135142560007 3.3155090502040001 63.5543516254270031 C
atom 5.4784212495000002 0.5145810421050000 69.0744337415600000 C
atom 1.3957346804520001 4.1259570135030001 65.9916197341830042 C
atom 0.0946481520480000 1.6864689356320000 71.0351753236580095 C
atom 0.0923302993520000 6.9458640173779997 71.4956325928259986 C
atom 2.6345220051440004 5.3066979142059996 75.0409490475969960 C
atom -1.0785291186520001 5.7920871777469998 80.5610311637300072 C
atom 2.9776608053360003 2.1706213819939997 76.5491219051129974 C
atom 4.1756794273200004 3.3335477756100000 74.5784466002029944 C
atom 5.5192887076080002 0.5326125346620000 80.0985287163360056 C
atom 1.4366005935160002 4.1439957389090001 77.0157147089590097 C
atom 0.1355140651120000 1.7045076610380001 82.0592702984339866 C
atom 0.1331962124160000 6.9639027427839997 82.5197275676020041 C
atom 2.6753945139680000 5.3247366396119995 86.0670892005989998 C
atom -1.0376566098280000 5.8101259031530006 91.5871713167319967 C
atom 3.0185399099200003 2.1886601073999996 87.5752620581150012 C
atom 4.2165585319040000 3.3515865010160000 85.6045867532050124 C
atom 5.5601678121919997 0.5506512600680000 91.1246688693379951 C
atom 1.4774796981000000 4.1620344643150000 88.0418548619609993 C
atom 0.1763865739360000 1.7225463864440000 93.0852643672769915 C
atom 0.1740753170000002 6.9819414681899996 93.5458677206040079 C
atom 2.7162604270320001 5.3427753650179994 97.0911841753750053 C
atom -0.9967906967640001 5.8281646285590005 102.6112662915080023 C
atom 3.0594073680280003 2.2066915999569998 98.5993570328910067 C
atom 4.2574244449679997 3.3696252264219999 96.6286817279810037 C
atom 5.6010337252560003 0.5686899854740000 102.1487638441140007 C
atom 1.5183456111639997 4.1800731897209999 99.0659498367370048 C
atom 0.2172590827600000 1.7405851118500000 104.1093593420530112 C
atom 0.2149412300640002 6.9999801935959995 104.5699626953799992 C
atom 2.7936316335039999 3.9597244449359996 41.3513124673349992 N
atom -1.4865050069640000 7.0287452340689995 46.8674503111750056 N
atom 2.5737172722240000 3.4097386069760001 44.0922895426519972 N
atom 1.4277319344680000 5.1835152628870000 42.9399776964599980 N
atom 3.9386826423839998 2.1850726142959997 42.5036243135270055 N
atom 5.5194154648720009 1.5777881465579999 48.0177169791409995 N
atom 1.8679185570360002 3.4227360366289998 40.4545018152340035 N
atom 0.9809572260079999 0.3324072743420000 45.9665493026219991 N
atom 3.4994173381720000 3.9465100298130000 44.9892462789120060 N
atom 0.2482102534120000 5.8399975695229998 42.6483937150959989 N
atom 1.0646134271840000 5.1499620763760001 48.1583960242580034 N
atom 5.1183053377599999 1.5287349646399999 42.7952082948910046 N
atom 0.2980181669960000 0.3595521566390000 49.6043370300399928 N
atom -0.1117644495999999 5.8108708866000001 48.4520251838480007 N
atom 4.4261269159040006 7.0558177878759993 50.5031928603670011 N
atom 4.3429211233279998 2.2386246282919999 48.3113461387309968 N
atom 2.8345056873720003 3.9777559374930003 52.3754074421109976 N
atom -1.4456390939000001 7.0467839594749995 57.8915452859509969 N
atom 2.6145847303320005 3.4277700995329998 55.1163845174280027 N
atom 1.4686044432920000 5.2015539882930000 53.9640726712360035 N
atom 3.9795485554479999 2.2031113397019997 53.5277192883029969 N
atom 5.5602895187400003 1.5958196391149999 59.0418119539169979 N
atom 1.9087844700999999 3.4407747620349998 51.4785967900099948 N
atom 1.0218246841159999 0.3504387668990000 56.9906442773980046 N
atom 3.5402847962800004 3.9645415223699998 56.0133412536879973 N
atom 0.2890761664760000 5.8580362949289997 53.6724886898720044 N
atom 1.1054808852920002 5.1679935689329994 59.1824909990339947 N
atom 5.1591778465839999 1.5467736900459998 53.8193032696669960 N
atom 0.3388856251040000 0.3775836491960000 60.6284320048159984 N
atom -0.0708985365360002 5.8289096120060000 59.4761201586239991 N
atom 4.4669928289680003 7.0738565132820002 61.5272878351430066 N
atom 4.3837870363920004 2.2566633536979999 59.3354411135070023 N
atom 2.8753766511520000 3.9958018957480004 63.4015475951129943 N
atom -1.4047599893160001 7.0648226848810003 68.9175393547940018 N
atom 2.6554622898720002 3.4458160577879999 66.1425246704300065 N
atom 1.5094769521159999 5.2195927136989999 64.9902128242380002 N
atom 4.0204276600320004 2.2211500651079996 64.5538594413049935 N
atom 5.6011620275639995 1.6138583645209998 70.0678060227599957 N
atom 1.9496569789240001 3.4588134874409997 62.5045908588529997 N
atom 1.0626971929400002 0.3684774923050000 68.0166383462409954 N
atom 3.5811573051040000 3.9825802477759997 67.0393353225310022 N
atom 0.3299552710599999 5.8760750203349996 64.6986288428740011 N
atom 1.1463599898760000 5.1860322943389994 70.2086311520359914 N
atom 5.2000503554080000 1.5648124154520000 64.8454434226689926 N
atom 0.3797647296880000 0.3956223746019999 71.6545721578179950 N
atom -0.0300260277120000 5.8469483374119999 70.5022603116260029 N
atom 4.5078719335519999 7.0918952386880001 72.5534279881450033 N
atom 4.4246661409760000 2.2747020791039998 70.3614351823500073 N
atom 2.9162441092600004 4.0138333883049997 74.4256425698890069 N
atom -1.3638940762520000 7.0828614102870002 79.9416343295699932 N
atom 2.6963297479800001 3.4638475503450001 77.1666196452059978 N
atom 1.5503428651800000 5.2376314391049998 76.0143077990139915 N
atom 4.0612935730960000 2.2391887905139995 75.5779544160809991 N
atom 5.6420279406280001 1.6318970899270000 81.0919009975360012 N
atom 1.9905310327920003 3.4768449799979999 73.5286858336289981 N
atom 1.1035697017639998 0.3865162177110000 79.0407333210170009 N
atom 3.6220298139279996 4.0006189731820001 78.0634302973069936 N
atom 0.3708211841240001 5.8941137457409996 75.7227238176499924 N
atom 1.1872259029400001 5.2040710197449993 81.2327261268119969 N
atom 5.2409162684720005 1.5828511408579999 75.8695383974449982 N
atom 0.4206306427520000 0.4136611000080000 82.6786671325940006 N
atom 0.0108414303960001 5.8649798299689992 81.5263552864019942 N
atom 4.5487393916599999 7.1099267312450003 83.5775229629210088 N
atom 4.4655320540399996 2.2927408045099997 81.3855301571259986 N
atom 2.9571232138440000 4.0318721137109996 85.4517827228910107 N
atom -1.3230215674280001 7.1009001356930002 90.9677744825720112 N
atom 2.7372022568040006 3.4818862757510001 88.1926137140490027 N
atom 1.5912219697640002 5.2556701645109998 87.0403018678569964 N
atom 4.1021660819200001 2.2572275159199999 86.6039484849240040 N
atom 5.6829070452120005 1.6499358153329999 92.1180411505379908 N
atom 2.0314035416160001 3.4948837054039998 84.5548259866310019 N
atom 1.1444422105880001 0.4045549431170000 90.0668734740190047 N
atom 3.6629023227520001 4.0186576985880000 89.0895704503089974 N
atom 0.4116936929479998 5.9121524711469995 86.7487178864929973 N
atom 1.2280984117640004 5.2221097451509992 92.2588662798140007 N
atom 5.2817953730560001 1.6008898662640001 86.8955324662880031 N
atom 0.4615031515760000 0.4316998254140000 93.7046612014369913 N
atom 0.0517205349800000 5.8830185553749992 92.5523493552449992 N
atom 4.5896119004840008 7.1279654566510002 94.6035170317639853 N
atom 4.5064045628640006 2.3107795299159997 92.4116703101280024 N
atom 2.9979891269080001 4.0499108391170004 96.4757316135080032 N
atom -1.2821556543640000 7.1189388610990001 101.9918694573480025 N
atom 2.7780681698680003 3.4999250011570000 99.2167086888249941 N
atom 1.6320894278720000 5.2737016570680000 98.0643968426330019 N
atom 4.1430319949840007 2.2752662413260003 97.6280434596999953 N
atom 5.7237729582760002 1.6679745407390001 103.1421361253139963 N
atom 2.0722694546800002 3.5129224308100002 95.5789209614069932 N
atom 1.1853081236520000 0.4225936685230000 101.0909684487949960 N
atom 3.7037682358160007 4.0366964239940000 100.1136654250850029 N
atom 0.4525611510559999 5.9301839637039997 97.7728128612689886 N
atom 1.2689643248280000 5.2401484705570001 103.2829612545900062 N
atom 5.3226612861199998 1.6189285916700000 97.9196274410639944 N
atom 0.5023756604000000 0.4497385508200000 104.7287561762129968 N
atom 0.0925864480440000 5.9010572807810000 103.5764443300209905 N
atom 4.6304778135479996 7.1460041820570002 105.6276120065400050 N
atom 4.5472720209720006 2.3288110224729999 103.4357652849040079 N
atom 0.8558396531160002 4.0964035924889997 40.2333303985079951 O
atom 0.4489385744479998 6.8929629597919995 45.7453778858959978 O
atom 4.5114406842160006 3.2727629126140001 45.2083725174120019 O
atom 2.1268398137280005 2.3103744903719998 40.0000339965849960 O
atom 0.7183061777840001 1.4430546353859999 45.5100363057470005 O
atom 3.2407005500399997 5.0588715760699996 45.4456131916279986 O
atom 0.2842636995440000 6.7720731216059997 41.8399639791900029 O
atom 1.0224259748720002 4.2138722930979995 47.3561018230300022 O
atom 5.0819927600680002 0.5962977701070000 43.6015928525709953 O
atom -0.7555637127560000 5.4546458405009997 43.2737799997750017 O
atom 6.1222424718840003 1.9143109119809998 42.1718671884380001 O
atom 3.3353689798480004 1.8528967911220000 47.6939944827970024 O
atom 4.9581301170240000 0.4953344309160000 50.7245103612519941 O
atom 4.6884146644520008 5.9450185370029995 50.9597058572419996 O
atom 4.3852382319200007 3.1747867400600001 49.1156855181849963 O
atom 2.0721320589880001 5.5355380237169998 48.7758937643509967 O
atom 0.8967071112240002 4.1144350850459999 51.2574253732840006 O
atom 0.4898060325560000 6.9109944523490006 56.7693267765129974 O
atom 4.5523065972800003 3.2908016380200000 56.2324674921880003 O
atom 2.1677057267920001 2.3284132157779998 51.0241289713610016 O
atom 0.7591720908480001 1.4610933607920000 56.5341312805229990 O
atom 3.2815664631039998 5.0769103014759995 56.4697081664040041 O
atom 0.3251296126080003 6.7901118470119997 52.8640589539659942 O
atom 1.0632918879360000 4.2319110185039994 58.3801967978060006 O
atom 5.1228668139360005 0.6143292626640000 54.6256878273470008 O
atom -0.7146962546480001 5.4726773330579999 54.2978749745510001 O
atom 6.1631083849480008 1.9323496373869999 53.1959621632140056 O
atom 3.3762348929120001 1.8709355165280002 58.7179433734140019 O
atom 4.9989960300880005 0.5133731563220000 61.7484592518690008 O
atom 4.7292805775160005 5.9630572624089995 61.9838008320180052 O
atom 4.4261041449839995 3.1928254654660000 60.1397804929610018 O
atom 2.1129979720519998 5.5535767491230006 59.7998426549679962 O
atom 0.9375780750040001 4.1324810433009995 62.2834194421269984 O
atom 0.5306785413800001 6.9290331777550005 67.7954669295150012 O
atom 4.5931791061039995 3.3088403634260000 67.2586076451899970 O
atom 2.2085848313760001 2.3464519411839997 62.0501230402040065 O
atom 0.8000511954320000 1.4791320861980000 67.5602714335250027 O
atom 3.3224389719280003 5.0949490268819995 67.4958483194059937 O
atom 0.3660087171920000 6.8081505724179996 63.8901991069680051 O
atom 1.1041643967600001 4.2499497439099994 69.4063369508079973 O
atom 5.1637377777159994 0.6323752209190000 65.6518279803489975 O
atom -0.6738237458240001 5.4907160584639998 65.3240151275529968 O
atom -0.3917725104680000 1.9503883627929999 64.2219562320569963 O
atom 3.4171139974960001 1.8889742419340001 69.7440835264160057 O
atom 5.0398751346720001 0.5314118817279999 72.7745994048709974 O
atom 4.7701530863400006 5.9810959878149994 73.0099409850199947 O
atom 4.4669766538080005 3.2108641908719999 71.1659206459629985 O
atom 2.1538704808759999 5.5716154745290005 70.8259828079699929 O
atom 0.9784455331120001 4.1505125358579997 73.3075144169029898 O
atom 0.5715510502039999 6.9470719031610004 78.8195619042909925 O
atom 4.6340450191680000 3.3268790888319999 78.2827026199659883 O
atom 2.2494522894840006 2.3644834337409999 73.0742180149800049 O
atom 0.8409171084959999 1.4971708116040001 78.5842203241420094 O
atom 3.3633064300359998 5.1129805194389997 78.5199432941819992 O
atom 0.4068746302560000 6.8261892978239995 74.9142940817440035 O
atom 1.1450318548680003 4.2679812364670004 80.4302858414250039 O
atom 5.2046052358240003 0.6504067134760000 76.6759229551250030 O
atom -0.6329512370000001 5.5087547838699997 76.3481101023289881 O
atom -0.3509065974040000 1.9684270881989998 75.2460512068329876 O
atom 3.4579799105599998 1.9070129673400000 80.7681785011920113 O
atom 5.0807425927800001 0.5494433742850000 83.7986943796469888 O
atom 4.8110255951639997 5.9991347132209993 84.0340359597960003 O
atom 4.5078441119160004 3.2288956834290001 82.1898695365800052 O
atom 2.1947363939400000 5.5896541999350005 81.8500777827459984 O
atom 1.0193246376960003 4.1685512612639997 84.3336545699049935 O
atom 0.6124235590280001 6.9651106285670004 89.8457020572929963 O
atom 4.6749241237520005 3.3449178142379998 89.3086966888089933 O
atom 2.2903232532640003 2.3825293919959996 84.1003581679820087 O
atom 0.8817896173200001 1.5152095370100001 89.6103604771439990 O
atom 3.4041855346199998 5.1310192448449996 89.5460834471839888 O
atom 0.4477471390800001 6.8442280232299995 85.9404342347459931 O
atom 1.1859094144079998 4.2860271947220001 91.4564259944269935 O
atom 5.2454843404079998 0.6684454388820000 87.7019170239679937 O
atom -0.5920787281760000 5.5267935092759997 87.3742502553310061 O
atom -0.3100340885800000 1.9864658136049997 86.2721913598350056 O
atom 3.4988524193840003 1.9250516927460000 91.7943186541940008 O
atom 5.1216151016040010 0.5674820996909999 94.8248345326489925 O
atom 4.8518981039879998 6.0171734386269993 95.0600300286390052 O
atom 4.5487216714559997 3.2469416416839998 93.2160096895820089 O
atom 2.2356154985240000 5.6076929253410004 92.8762179357480022 O
atom 1.0601905507600000 4.1865899866699996 95.3577495446809991 O
atom 0.6532894720919998 6.9831493539730003 100.8697970320690018 O
atom 4.7157915818599996 3.3629493067950000 100.3327916635849988 O
atom 2.3311973071319998 2.4005608845529998 95.1244531427580000 O
atom 0.9226555303839998 1.5332482624160000 100.6344554519200045 O
atom 3.4450514476840004 5.1490579702509995 100.5701784219600086 O
atom 0.4886145971879998 6.8622595157869997 96.9645292095219986 O
atom 1.2267768725159998 4.3040586872790003 102.4805209692029848 O
atom 5.2863502534720004 0.6864841642880000 98.7260119987439992 O
atom -0.5512128151120002 5.5448322346820005 98.3981991459479985 O
atom -0.2691681755160001 2.0045045390110001 97.2962863346109970 O
atom 3.5397249282080008 1.9430904181519999 102.8184136289699921 O
atom 5.1624810146680007 0.5855208250970000 105.8489295074249981 O
atom 4.8927655620959998 6.0352049311840004 106.0841250034149965 O
atom 4.5895891295639997 3.2649731342410000 104.2401046643580003 O
atom 2.2764829566320000 5.6257244178979997 103.9003129105239935 O
