#=======================================================
# FHI-aims file: output/HOJCOB.001.3.0.in
# Created using the Atomic Simulation Environment (ASE)
# Tue Feb 11 09:01:59 2020
#=======================================================
lattice_vector 6.5957600000000003 0.0000000000000000 0.0000000000000000 
lattice_vector -1.5450440000000001 7.2328489999999999 0.0000000000000000 
lattice_vector 0.0000000000000000 0.0000000000000000 113.0099040000000059 
atom 3.4398865281479996 5.5797307311069995 42.4513793682720006 H
atom 4.4688749295520003 5.4111257880680004 47.9754164856960017 H
atom 1.9266098086200001 1.7891536928850000 42.9942789470879987 H
atom 4.3627263347919998 2.8475871169980000 40.5469364660640039 H
atom 5.0806705950800009 0.9059143372500000 46.0670182368480070 H
atom 1.0053191005759998 4.5223822343440006 44.8987218492960025 H
atom 2.2269418455400003 6.0027945348150000 41.2226226820800008 H
atom -0.9194749776919999 4.9860584851869998 46.7427044528640039 H
atom 3.1407359533119998 1.3669505982079999 44.2189672767360022 H
atom 4.7919859257080004 4.0175076755969998 41.8340062627200027 H
atom 3.1144688926640010 6.9753161785059996 47.3641459149600053 H
atom 0.5746530778599999 3.3516660623550001 43.6136862309120019 H
atom 0.9387939760800001 1.9771716026399999 48.4962791332320009 H
atom 0.3260811480360002 6.4820141781589999 50.4026432038080046 H
atom -0.2687129751560001 2.4023835625009999 49.7289911660640058 H
atom 2.2930680977680002 0.4129812122020000 49.1076627138720028 H
atom 3.4807539862559995 5.5977622236639997 53.4754955034719970 H
atom 4.5097474383760003 5.4291645134740003 58.9995326208960051 H
atom 1.9674757216840002 1.8071924182910000 54.0183950822880021 H
atom 4.4035937929000006 2.8656186095550003 51.5710526012640003 H
atom 5.1215365081440005 0.9239530626560000 57.0911343720480104 H
atom 1.0461850136399997 4.5404209597500005 55.9227249745920005 H
atom 2.2678093036480007 6.0208260273719993 52.2467388172800042 H
atom -0.8786090646280001 5.0040972105930006 57.7668205880640073 H
atom 3.1816018663760000 1.3849893236139998 55.2430834119359986 H
atom 4.8328518387720010 4.0355464010029998 52.8581223979199990 H
atom 3.1553429465319995 6.9933476710629998 58.3882620501600087 H
atom 0.6155189909239999 3.3697047877610000 54.6378023661120054 H
atom 0.9796598891440002 1.9952103280459998 59.5203952684320043 H
atom 0.3669470611000002 6.5000529035649999 61.4267593390080080 H
atom -0.2278455170480000 2.4204150550579997 60.7531073012640093 H
atom 2.3339340108319999 0.4310199376080000 60.1316658391680008 H
atom 3.5216330908400009 5.6158009490699996 64.5015328070400074 H
atom 4.5506199472000004 5.4472032388800002 70.0256829343680067 H
atom 2.0083482305080000 1.8252311436969999 65.0445453957599966 H
atom 4.4444647566800004 2.8836645678099999 62.5972029147360018 H
atom 5.1624090169679997 0.9419917880619999 68.1172846855200049 H
atom 1.0870641182240000 4.5584596851560004 66.9488752880640163 H
atom 2.3086884082320003 6.0388647527780002 63.2728891307520058 H
atom -0.8377299600440001 5.0221359359990005 68.7929709015360089 H
atom 3.2224809709600004 1.4030280490200000 66.2691207155040019 H
atom 4.8737309433560005 4.0535851264089997 63.8841597014880094 H
atom 3.1962139103120002 7.0113936293179995 69.4142993537279978 H
atom 0.6563914997480000 3.3877435131670000 65.6638396696800015 H
atom 1.0205323979680001 2.0132490534519998 70.5464325720000005 H
atom 0.4078261656839999 6.5180916289709998 72.4529096524800025 H
atom -0.1869679575080001 2.4384610133130002 71.7791446048319983 H
atom 2.3748065196560000 0.4490586630140000 71.1578161526400095 H
atom 2.5119095293879998 5.2525889708369995 41.9666798900160032 C
atom -1.2011415944079999 5.7379782343779997 47.4867616608000063 C
atom 2.8550498746240001 2.1165052057759999 43.4749100687999999 C
atom 4.0530684966079997 3.2794315993919998 41.5042433628480012 C
atom 5.3966762318520001 0.4785035912930000 47.0243251336319972 C
atom 1.3139881177600004 4.0898867955400000 43.9415279624160036 C
atom 0.0129031344000000 1.6503914848199999 48.9849339581280034 C
atom 0.0105903324200000 6.9097937994150005 49.4454493169279985 C
atom 2.5527754424519999 5.2706276962429994 52.9907960252159995 C
atom -1.1602741363000002 5.7560097269349999 58.5108777960000097 C
atom 2.8959223834480001 2.1345439311819998 54.4990262040000033 C
atom 4.0939410054319998 3.2974703247979997 52.5282464881439992 C
atom 5.4375487406760001 0.4965423166990000 58.0483282589280094 C
atom 1.3548621716279998 4.1079182880970002 54.9655310877120016 C
atom 0.0537690474640000 1.6684302102259998 60.0090500933280069 C
atom 0.0514577905279999 6.9278252919719998 60.4695654521279948 C
atom 2.5936479512760000 5.2886664216490002 64.0169463386880011 C
atom -1.1194016274760001 5.7740484523409998 69.5370281094720042 C
atom 2.9367948922720002 2.1525826565879997 65.5250635075680066 C
atom 4.1348135142560007 3.3155090502040001 63.5543968016160008 C
atom 5.4784212495000002 0.5145810421050000 69.0744785724000110 C
atom 1.3957346804520001 4.1259570135030001 65.9916814011839961 C
atom 0.0946481520480000 1.6864689356320000 71.0350873968960030 C
atom 0.0923302993520000 6.9458640173779997 71.4956027556960123 C
atom 2.7936316335039999 3.9597244449359996 41.3513409627360033 N
atom -1.4865050069640000 7.0287452340689995 46.8674673868800014 N
atom 2.5737172722240000 3.4097386069760001 44.0922831743519978 N
atom 1.4277319344680000 5.1835152628870000 42.9400341931680032 N
atom 3.9386826423839998 2.1850726142959997 42.5035899439200051 N
atom 5.5194154648720009 1.5777881465579999 48.0176821897920050 N
atom 1.8679185570360002 3.4227360366289998 40.4544943645920014 N
atom 0.9809572260079999 0.3324072743420000 45.9665524321920032 N
atom 3.4994173381720000 3.9465100298130000 44.9892427824000052 N
atom 0.2482102534120000 5.8399975695229998 42.6484686408480016 N
atom 1.0646134271840000 5.1499620763760001 48.1584925301760052 N
atom 5.1183053377599999 1.5287349646399999 42.7952685061440050 N
atom 0.2980181669960000 0.3595521566390000 49.6043412419519996 N
atom -0.1117644495999999 5.8108708866000001 48.4520922607680049 N
atom 4.4261269159040006 7.0558177878759993 50.5032220183680067 N
atom 4.3429211233279998 2.2386246282919999 48.3112819203839976 N
atom 2.8345056873720003 3.9777559374930003 52.3754570979360068 N
atom -1.4456390939000001 7.0467839594749995 57.8914705121759994 N
atom 2.6145847303320005 3.4277700995329998 55.1163993095520013 N
atom 1.4686044432920000 5.2015539882930000 53.9641503283680066 N
atom 3.9795485554479999 2.2031113397019997 53.5277060791200014 N
atom 5.5602895187400003 1.5958196391149999 59.0417983249920084 N
atom 1.9087844700999999 3.4407747620349998 51.4786104997920049 N
atom 1.0218246841159999 0.3504387668990000 56.9905555574880012 N
atom 3.5402847962800004 3.9645415223699998 56.0132459076960032 N
atom 0.2890761664760000 5.8580362949289997 53.6724717661440067 N
atom 1.1054808852920002 5.1679935689329994 59.1824956554719961 N
atom 5.1591778465839999 1.5467736900459998 53.8192716314400030 N
atom 0.3388856251040000 0.3775836491960000 60.6284573771519959 N
atom -0.0708985365360002 5.8289096120060000 59.4760953860639958 N
atom 4.4669928289680003 7.0738565132820002 61.5273381535680031 N
atom 4.3837870363920004 2.2566633536979999 59.3353980555840010 N
atom 2.8753766511520000 3.9958018957480004 63.4014944015040030 N
atom -1.4047599893160001 7.0648226848810003 68.9176208256480010 N
atom 2.6554622898720002 3.4458160577879999 66.1424366131200117 N
atom 1.5094769521159999 5.2195927136989999 64.9901876319360099 N
atom 4.0204276600320004 2.2211500651079996 64.5538563925920101 N
atom 5.6011620275639995 1.6138583645209998 70.0678356285600046 N
atom 1.9496569789240001 3.4588134874409997 62.5046478033600010 N
atom 1.0626971929400002 0.3684774923050000 68.0167058709599957 N
atom 3.5811573051040000 3.9825802477759997 67.0393962211680048 N
atom 0.3299552710599999 5.8760750203349996 64.6986220796160012 N
atom 1.1463599898760000 5.1860322943389994 70.2086459689439977 N
atom 5.2000503554080000 1.5648124154520000 64.8454219449120046 N
atom 0.3797647296880000 0.3956223746019999 71.6544946807200063 N
atom -0.0300260277120000 5.8469483374119999 70.5022456995360045 N
atom 4.5078719335519999 7.0918952386880001 72.5533754571360134 N
atom 4.4246661409760000 2.2747020791039998 70.3614353591519972 N
atom 0.8558396531160002 4.0964035924889997 40.2332209725600052 O
atom 0.4489385744479998 6.8929629597919995 45.7452790401599998 O
atom 4.5114406842160006 3.2727629126140001 45.2083689862559979 O
atom 2.1268398137280005 2.3103744903719998 39.9999685307040025 O
atom 0.7183061777840001 1.4430546353859999 45.5099924200320061 O
atom 3.2407005500399997 5.0588715760699996 45.4456897846560040 O
atom 0.2842636995440000 6.7720731216059997 41.8399957876319988 O
atom 1.0224259748720002 4.2138722930979995 47.3561222117760039 O
atom 5.0819927600680002 0.5962977701070000 43.6015941711840043 O
atom -0.7555637127560000 5.4546458405009997 43.2738654495840009 O
atom 6.1222424718840003 1.9143109119809998 42.1717928657759984 O
atom 3.3353689798480004 1.8528967911220000 47.6939088148319996 O
atom 4.9581301170240000 0.4953344309160000 50.7244954104000030 O
atom 4.6884146644520008 5.9450185370029995 50.9597820305280038 O
atom 4.3852382319200007 3.1747867400600001 49.1156864170560041 O
atom 2.0721320589880001 5.5355380237169998 48.7758656357280032 O
atom 0.8967071112240002 4.1144350850459999 51.2573371077600015 O
atom 0.4898060325560000 6.9109944523490006 56.7693951753600032 O
atom 4.5523065972800003 3.2908016380200000 56.2324851214560013 O
atom 2.1677057267920001 2.3284132157779998 51.0240846659039988 O
atom 0.7591720908480001 1.4610933607920000 56.5341085552320024 O
atom 3.2815664631039998 5.0769103014759995 56.4698059198560003 O
atom 0.3251296126080003 6.7901118470119997 52.8641119228320022 O
atom 1.0632918879360000 4.2319110185039994 58.3801253370720019 O
atom 5.1228668139360005 0.6143292626640000 54.6257103063840006 O
atom -0.7146962546480001 5.4726773330579999 54.2978685748800061 O
atom 6.1631083849480008 1.9323496373869999 53.1959090009760018 O
atom 3.3762348929120001 1.8709355165280002 58.7180249500320031 O
atom 4.9989960300880005 0.5133731563220000 61.7484985356960010 O
atom 4.7292805775160005 5.9630572624089995 61.9837851558240018 O
atom 4.4261041449839995 3.1928254654660000 60.1398025522560005 O
atom 2.1129979720519998 5.5535767491230006 59.7998687610240012 O
atom 0.9375780750040001 4.1324810433009995 62.2834874212320031 O
atom 0.5306785413800001 6.9290331777550005 67.7954324789280065 O
atom 4.5931791061039995 3.3088403634260000 67.2585224250240117 O
atom 2.2085848313760001 2.3464519411839997 62.0501219694720021 O
atom 0.8000511954320000 1.4791320861980000 67.5602588687039969 O
atom 3.3224389719280003 5.0949490268819995 67.4958432234240036 O
atom 0.3660087171920000 6.8081505724179996 63.8901492264000055 O
atom 1.1041643967600001 4.2499497439099994 69.4062756505440035 O
atom 5.1637377777159994 0.6323752209190000 65.6517476099519968 O
atom -0.6738237458240001 5.4907160584639998 65.3240188883520148 O
atom -0.3917725104680000 1.9503883627929999 64.2220593144480034 O
atom 3.4171139974960001 1.8889742419340001 69.7440622536000063 O
atom 5.0398751346720001 0.5314118817279999 72.7746488491680026 O
atom 4.7701530863400006 5.9810959878149994 73.0099354692959963 O
atom 4.4669766538080005 3.2108641908719999 71.1658398558240037 O
atom 2.1538704808759999 5.5716154745290005 70.8260190744960028 O
