#=======================================================
# FHI-aims file: output/HOJCOB.001.4.0.in
# Created using the Atomic Simulation Environment (ASE)
# Tue Feb 11 09:01:59 2020
#=======================================================
lattice_vector 6.5957600000000003 0.0000000000000000 0.0000000000000000 
lattice_vector -1.5450440000000001 7.2328489999999999 0.0000000000000000 
lattice_vector 0.0000000000000000 0.0000000000000000 124.0339850000000013 
atom 3.4398865281479996 5.5797307311069995 42.4513755701600033 H
atom 4.4688749295520003 5.4111257880680004 47.9754771601050010 H
atom 1.9266098086200001 1.7891536928850000 42.9942723225050045 H
atom 4.3627263347919998 2.8475871169980000 40.5469577644700010 H
atom 5.0806705950800009 0.9059143372500000 46.0670902668950006 H
atom 1.0053191005759998 4.5223822343440006 44.8986901281949997 H
atom 2.2269418455400003 6.0027945348150000 41.2226949147500008 H
atom -0.9194749776919999 4.9860584851869998 46.7427033831900047 H
atom 3.1407359533119998 1.3669505982079999 44.2189838903950019 H
atom 4.7919859257080004 4.0175076755969998 41.8339343928300025 H
atom 3.1144688926640010 6.9753161785059996 47.3641136480399965 H
atom 0.5746530778599999 3.3516660623550001 43.6136980435950008 H
atom 0.9387939760800001 1.9771716026399999 48.4962958631200038 H
atom 0.3260811480360002 6.4820141781589999 50.4026982125700016 H
atom -0.2687129751560001 2.4023835625009999 49.7290696400350001 H
atom 2.2930680977680002 0.4129812122020000 49.1076593751850012 H
atom 3.4807539862559995 5.5977622236639997 53.4753921229750020 H
atom 4.5097474383760003 5.4291645134740003 58.9994937129199997 H
atom 1.9674757216840002 1.8071924182910000 54.0184129093049989 H
atom 4.4035937929000006 2.8656186095550003 51.5710983512699954 H
atom 5.1215365081440005 0.9239530626560000 57.0911068197099993 H
atom 1.0461850136399997 4.5404209597500005 55.9228307149950012 H
atom 2.2678093036480007 6.0208260273719993 52.2467114675649995 H
atom -0.8786090646280001 5.0040972105930006 57.7668439699899992 H
atom 3.1816018663760000 1.3849893236139998 55.2431244771949963 H
atom 4.8328518387720010 4.0355464010029998 52.8580749796299969 H
atom 3.1553429465319995 6.9933476710629998 58.3882542348399980 H
atom 0.6155189909239999 3.3697047877610000 54.6377145964099995 H
atom 0.9796598891440002 1.9952103280459998 59.5204364499200054 H
atom 0.3669470611000002 6.5000529035649999 61.4267147653850003 H
atom -0.2278455170480000 2.4204150550579997 60.7530861928500059 H
atom 2.3339340108319999 0.4310199376080000 60.1316759279999999 H
atom 3.5216330908400009 5.6158009490699996 64.5015172535349990 H
atom 4.5506199472000004 5.4472032388800002 70.0256188434799896 H
atom 2.0083482305080000 1.8252311436969999 65.0445380398650030 H
atom 4.4444647566800004 2.8836645678099999 62.5970994478450038 H
atom 5.1624090169679997 0.9419917880619999 68.1172319502699963 H
atom 1.0870641182240000 4.5584596851560004 66.9488318115700025 H
atom 2.3086884082320003 6.0388647527780002 63.2728365981250036 H
atom -0.8377299600440001 5.0221359359990005 68.7929691005499961 H
atom 3.2224809709600004 1.4030280490200000 66.2691255737700118 H
atom 4.8737309433560005 4.0535851264089997 63.8842001101900010 H
atom 3.1962139103120002 7.0113936293179995 69.4142553314150064 H
atom 0.6563914997480000 3.3877435131670000 65.6638397269700107 H
atom 1.0205323979680001 2.0132490534519998 70.5464375464949995 H
atom 0.4078261656839999 6.5180916289709998 72.4528398959450044 H
atom -0.1869679575080001 2.4384610133130002 71.7792113234100100 H
atom 2.3748065196560000 0.4490586630140000 71.1578010585599969 H
atom 3.5624990039040001 5.6338396744759995 75.5256578403350005 H
atom 4.5914858602640001 5.4652419642860002 81.0497594302800053 H
atom 2.0492207393320001 1.8432698691029998 76.0685545926800017 H
atom 4.4853322147879995 2.9016960603670001 73.6212400346449982 H
atom 5.2032749300320003 0.9600305134679999 79.1413725370699979 H
atom 1.1279300312880001 4.5764984105620004 77.9729723983700040 H
atom 2.3495543212959999 6.0569034781840001 74.2969771849249980 H
atom -0.7968640469800001 5.0401746614050005 79.8169856533649948 H
atom 3.2633468840240005 1.4210667744259999 77.2932661605699991 H
atom 4.9145984014640005 4.0716166189659999 74.9082166630050068 H
atom 3.2370813684200006 7.0294251218750006 80.4383959182149937 H
atom 0.6972640085720000 3.4057822385729999 76.6879803137699980 H
atom 1.0614064518360000 2.0312805460090000 81.5705781332950011 H
atom 0.4486920787479999 6.5361303543769997 83.4769804827449917 H
atom -0.1461004994000000 2.4564925058700000 82.8032278762249945 H
atom 2.4156724327200001 0.4670973884200000 82.1819416453600127 H
atom 2.5119095293879998 5.2525889708369995 41.9667747907650011 C
atom -1.2011415944079999 5.7379782343779997 47.4867832592049979 C
atom 2.8550498746240001 2.1165052057759999 43.4749040143800016 C
atom 4.0530684966079997 3.2794315993919998 41.5042520606999972 C
atom 5.3966762318520001 0.4785035912930000 47.0242605291400011 C
atom 1.3139881177600004 4.0898867955400000 43.9415198659499993 C
atom 0.0129031344000000 1.6503914848199999 48.9849897640199998 C
atom 0.0105903324200000 6.9097937994150005 49.4455279503250011 C
atom 2.5527754424519999 5.2706276962429994 52.9907913435799998 C
atom -1.1602741363000002 5.7560097269349999 58.5109238460049994 C
atom 2.8959223834480001 2.1345439311819998 54.4990446011800032 C
atom 4.0939410054319998 3.2974703247979997 52.5282686135150030 C
atom 5.4375487406760001 0.4965423166990000 58.0484011159399955 C
atom 1.3548621716279998 4.1079182880970002 54.9655364187650051 C
atom 0.0537690474640000 1.6684302102259998 60.0090063168349985 C
atom 0.0514577905279999 6.9278252919719998 60.4695445031399998 C
atom 2.5936479512760000 5.2886664216490002 64.0169164741400039 C
atom -1.1194016274760001 5.7740484523409998 69.5369249425800007 C
atom 2.9367948922720002 2.1525826565879997 65.5251697317399930 C
atom 4.1348135142560007 3.3155090502040001 63.5543937440750071 C
atom 5.4784212495000002 0.5145810421050000 69.0744022125150110 C
atom 1.3957346804520001 4.1259570135030001 65.9916615493250021 C
atom 0.0946481520480000 1.6864689356320000 71.0351314473950026 C
atom 0.0923302993520000 6.9458640173779997 71.4956696337000039 C
atom 2.6345220051440004 5.3066979142059996 75.0409330269550026 C
atom -1.0785291186520001 5.7920871777469998 80.5610655293800022 C
atom 2.9776608053360003 2.1706213819939997 76.5491862845550060 C
atom 4.1756794273200004 3.3335477756100000 74.5784102968899987 C
atom 5.5192887076080002 0.5326125346620000 80.0985427993149983 C
atom 1.4366005935160002 4.1439957389090001 77.0156781021400008 C
atom 0.1355140651120000 1.7045076610380001 82.0592720341950042 C
atom 0.1331962124160000 6.9639027427839997 82.5196861865150026 C
atom 2.7936316335039999 3.9597244449359996 41.3513181571949957 N
atom -1.4865050069640000 7.0287452340689995 46.8674815720999973 N
atom 2.5737172722240000 3.4097386069760001 44.0923451917100024 N
atom 1.4277319344680000 5.1835152628870000 42.9400694710599993 N
atom 3.9386826423839998 2.1850726142959997 42.5035938778449989 N
atom 5.5194154648720009 1.5777881465579999 48.0176487150050022 N
atom 1.8679185570360002 3.4227360366289998 40.4544284116600039 N
atom 0.9809572260079999 0.3324072743420000 45.9664987050599976 N
atom 3.4994173381720000 3.9465100298130000 44.9892349372450013 N
atom 0.2482102534120000 5.8399975695229998 42.6484655723250015 N
atom 1.0646134271840000 5.1499620763760001 48.1584272879800039 N
atom 5.1183053377599999 1.5287349646399999 42.7951977765800038 N
atom 0.2980181669960000 0.3595521566390000 49.6042914511250004 N
atom -0.1117644495999999 5.8108708866000001 48.4520157304750043 N
atom 4.4261269159040006 7.0558177878759993 50.5032897744050047 N
atom 4.3429211233279998 2.2386246282919999 48.3112371575000026 N
atom 2.8345056873720003 3.9777559374930003 52.3754587439950043 N
atom -1.4456390939000001 7.0467839594749995 57.8914981249150031 N
atom 2.6145847303320005 3.4277700995329998 55.1163617445250011 N
atom 1.4686044432920000 5.2015539882930000 53.9640860238749980 N
atom 3.9795485554479999 2.2031113397019997 53.5277344646450004 N
atom 5.5602895187400003 1.5958196391149999 59.0417893018050037 N
atom 1.9087844700999999 3.4407747620349998 51.4785689984600054 N
atom 1.0218246841159999 0.3504387668990000 56.9906392918599991 N
atom 3.5402847962800004 3.9645415223699998 56.0132514900600000 N
atom 0.2890761664760000 5.8580362949289997 53.6724821251400002 N
atom 1.1054808852920002 5.1679935689329994 59.1825678747800055 N
atom 5.1591778465839999 1.5467736900459998 53.8193383633800053 N
atom 0.3388856251040000 0.3775836491960000 60.6284320379250019 N
atom -0.0708985365360002 5.8289096120060000 59.4761563172750058 N
atom 4.4669928289680003 7.0738565132820002 61.5273063272199963 N
atom 4.3837870363920004 2.2566633536979999 59.3353777443000041 N
atom 2.8753766511520000 3.9958018957480004 63.4015838745550013 N
atom -1.4047599893160001 7.0648226848810003 68.9176232554749930 N
atom 2.6554622898720002 3.4458160577879999 66.1424868750849981 N
atom 1.5094769521159999 5.2195927136989999 64.9902111544350021 N
atom 4.0204276600320004 2.2211500651079996 64.5538595952050116 N
atom 5.6011620275639995 1.6138583645209998 70.0679144323650007 N
atom 1.9496569789240001 3.4588134874409997 62.5046941290200095 N
atom 1.0626971929400002 0.3684774923050000 68.0166403884350075 N
atom 3.5811573051040000 3.9825802477759997 67.0393766206200041 N
atom 0.3299552710599999 5.8760750203349996 64.6986072556999972 N
atom 1.1463599898760000 5.1860322943389994 70.2086930053399954 N
atom 5.2000503554080000 1.5648124154520000 64.8454634939400023 N
atom 0.3797647296880000 0.3956223746019999 71.6545571684849989 N
atom -0.0300260277120000 5.8469483374119999 70.5022814478350028 N
atom 4.5078719335519999 7.0918952386880001 72.5534314577800075 N
atom 4.4246661409760000 2.2747020791039998 70.3615028748599940 N
atom 2.9162441092600004 4.0138333883049997 74.4256004273700000 N
atom -1.3638940762520000 7.0828614102870002 79.9416398082900059 N
atom 2.6963297479800001 3.4638475503450001 77.1665034279000110 N
atom 1.5503428651800000 5.2376314391049998 76.0142277072500008 N
atom 4.0612935730960000 2.2391887905139995 75.5778761480199961 N
atom 5.6420279406280001 1.6318970899270000 81.0919309851799994 N
atom 1.9905310327920003 3.4768449799979999 73.5287106818349940 N
atom 1.1035697017639998 0.3865162177110000 79.0407809752350090 N
atom 3.6220298139279996 4.0006189731820001 78.0633931734350028 N
atom 0.3708211841240001 5.8941137457409996 75.7227478425000129 N
atom 1.1872259029400001 5.2040710197449993 81.2327095581550083 N
atom 5.2409162684720005 1.5828511408579999 75.8694800467550010 N
atom 0.4206306427520000 0.4136611000080000 82.6785737212999976 N
atom 0.0108414303960001 5.8649798299689992 81.5262980006500015 N
atom 4.5487393916599999 7.1099267312450003 83.5774480105949920 N
atom 4.4655320540399996 2.2927408045099997 81.3855194276750069 N
atom 0.8558396531160002 4.0964035924889997 40.2332758164050048 O
atom 0.4489385744479998 6.8929629597919995 45.7453461098049985 O
atom 4.5114406842160006 3.2727629126140001 45.2084029887399979 O
atom 2.1268398137280005 2.3103744903719998 39.9999678906199989 O
atom 0.7183061777840001 1.4430546353859999 45.5100536402600042 O
atom 3.2407005500399997 5.0588715760699996 45.4456800020449947 O
atom 0.2842636995440000 6.7720731216059997 41.8400120580949988 O
atom 1.0224259748720002 4.2138722930979995 47.3560514390149976 O
atom 5.0819927600680002 0.5962977701070000 43.6016667470500039 O
atom -0.7555637127560000 5.4546458405009997 43.2738449246949983 O
atom 6.1222424718840003 1.9143109119809998 42.1718029679700024 O
atom 3.3353689798480004 1.8528967911220000 47.6939200141549975 O
atom 4.9581301170240000 0.4953344309160000 50.7244423696599966 O
atom 4.6884146644520008 5.9450185370029995 50.9597348392050051 O
atom 4.3852382319200007 3.1747867400600001 49.1157215842100001 O
atom 2.0721320589880001 5.5355380237169998 48.7758684653099976 O
atom 0.8967071112240002 4.1144350850459999 51.2572923692200035 O
atom 0.4898060325560000 6.9109944523490006 56.7693626626199972 O
atom 4.5523065972800003 3.2908016380200000 56.2324195415550037 O
atom 2.1677057267920001 2.3284132157779998 51.0241084774200004 O
atom 0.7591720908480001 1.4610933607920000 56.5340701930750029 O
atom 3.2815664631039998 5.0769103014759995 56.4698205888449962 O
atom 0.3251296126080003 6.7901118470119997 52.8641526448950003 O
atom 1.0632918879360000 4.2319110185039994 58.3801920258149991 O
atom 5.1228668139360005 0.6143292626640000 54.6256832998650026 O
atom -0.7146962546480001 5.4726773330579999 54.2979855114949999 O
atom 6.1631083849480008 1.9323496373869999 53.1959435547699968 O
atom 3.3762348929120001 1.8709355165280002 58.7180606009550061 O
atom 4.9989960300880005 0.5133731563220000 61.7485829564599982 O
atom 4.7292805775160005 5.9630572624089995 61.9837513920200038 O
atom 4.4261041449839995 3.1928254654660000 60.1397381370249988 O
atom 2.1129979720519998 5.5535767491230006 59.7998850181250035 O
atom 0.9375780750040001 4.1324810433009995 62.2834174997800076 O
atom 0.5306785413800001 6.9290331777550005 67.7954877931800013 O
atom 4.5931791061039995 3.3088403634260000 67.2585446721150078 O
atom 2.2085848313760001 2.3464519411839997 62.0502336079800045 O
atom 0.8000511954320000 1.4791320861980000 67.5601953236349999 O
atom 3.3224389719280003 5.0949490268819995 67.4958216854199975 O
atom 0.3660087171920000 6.8081505724179996 63.8901537414699945 O
atom 1.1041643967600001 4.2499497439099994 69.4063171563750103 O
atom 5.1637377777159994 0.6323752209190000 65.6518084304250067 O
atom -0.6738237458240001 5.4907160584639998 65.3239866080700011 O
atom -0.3917725104680000 1.9503883627929999 64.2220686853300009 O
atom 3.4171139974960001 1.8889742419340001 69.7440616975300003 O
atom 5.0398751346720001 0.5314118817279999 72.7745840530349994 O
atom 4.7701530863400006 5.9810959878149994 73.0098765225800008 O
atom 4.4669766538080005 3.2108641908719999 71.1658632675849958 O
atom 2.1538704808759999 5.5716154745290005 70.8260101486850004 O
atom 0.9784455331120001 4.1505125358579997 73.3075580865800021 O
atom 0.5715510502039999 6.9470719031610004 78.8196283799800028 O
atom 4.6340450191680000 3.3268790888319999 78.2826852589149951 O
atom 2.2494522894840006 2.3644834337409999 73.0742501607950032 O
atom 0.8409171084959999 1.4971708116040001 78.5843359104350014 O
atom 3.3633064300359998 5.1129805194389997 78.5199622722199990 O
atom 0.4068746302560000 6.8261892978239995 74.9142943282700031 O
atom 1.1450318548680003 4.2679812364670004 80.4303337091899948 O
atom 5.2046052358240003 0.6504067134760000 76.6758249832399912 O
atom -0.6329512370000001 5.5087547838699997 76.3481271948700027 O
atom -0.3509065974040000 1.9684270881989998 75.2460852381449996 O
atom 3.4579799105599998 1.9070129673400000 80.7682022843300018 O
atom 5.0807425927800001 0.5494433742850000 83.7987246398350010 O
atom 4.8110255951639997 5.9991347132209993 84.0340171093800024 O
atom 4.5078441119160004 3.2288956834290001 82.1898798204000087 O
atom 2.1947363939400000 5.5896541999350005 81.8500267014999991 O
