#=======================================================
# FHI-aims file: output/HOJCOB.001.9.0.in
# Created using the Atomic Simulation Environment (ASE)
# Tue Feb 11 09:01:59 2020
#=======================================================
lattice_vector 6.5957600000000003 0.0000000000000000 0.0000000000000000 
lattice_vector -1.5450440000000001 7.2328489999999999 0.0000000000000000 
lattice_vector 0.0000000000000000 0.0000000000000000 179.1604250000000036 
atom 3.4398865281479996 5.5797307311069995 42.4513460620499998 H
atom 4.4688749295520003 5.4111257880680004 47.9753994460750022 H
atom 1.9266098086200001 1.7891536928850000 42.9943813102250019 H
atom 4.3627263347919998 2.8475871169980000 40.5470499047250001 H
atom 5.0806705950800009 0.9059143372500000 46.0669825989750024 H
atom 1.0053191005759998 4.5223822343440006 44.8986774675500016 H
atom 2.2269418455400003 6.0027945348150000 41.2226638674000014 H
atom -0.9194749776919999 4.9860584851869998 46.7427757220750024 H
atom 3.1407359533119998 1.3669505982079999 44.2189428151000001 H
atom 4.7919859257080004 4.0175076755969998 41.8339592375000038 H
atom 3.1144688926640010 6.9753161785059996 47.3641040759750069 H
atom 0.5746530778599999 3.3516660623550001 43.6137388994500057 H
atom 0.9387939760800001 1.9771716026399999 48.4962188015500004 H
atom 0.3260811480360002 6.4820141781589999 50.4026648839749996 H
atom -0.2687129751560001 2.4023835625009999 49.7290216859749989 H
atom 2.2930680977680002 0.4129812122020000 49.1076933320749944 H
atom 3.4807539862559995 5.5977622236639997 53.4754453331500059 H
atom 4.5097474383760003 5.4291645134740003 58.9994987171750083 H
atom 1.9674757216840002 1.8071924182910000 54.0184805813250080 H
atom 4.4035937929000006 2.8656186095550003 51.5711491758250062 H
atom 5.1215365081440005 0.9239530626560000 57.0910818700750085 H
atom 1.0461850136399997 4.5404209597500005 55.9227767386500076 H
atom 2.2678093036480007 6.0208260273719993 52.2467631385000004 H
atom -0.8786090646280001 5.0040972105930006 57.7668749931750085 H
atom 3.1816018663760000 1.3849893236139998 55.2430420861999991 H
atom 4.8328518387720010 4.0355464010029998 52.8580585086000028 H
atom 3.1553429465319995 6.9933476710629998 58.3882033470749988 H
atom 0.6155189909239999 3.3697047877610000 54.6378381705500047 H
atom 0.9796598891440002 1.9952103280459998 59.5203180726500065 H
atom 0.3669470611000002 6.5000529035649999 61.4267641550750056 H
atom -0.2278455170480000 2.4204150550579997 60.7531209570749979 H
atom 2.3339340108319999 0.4310199376080000 60.1317926031750005 H
atom 3.5216330908400009 5.6158009490699996 64.5015153689249985 H
atom 4.5506199472000004 5.4472032388800002 70.0255687529499937 H
atom 2.0083482305080000 1.8252311436969999 65.0445506171000005 H
atom 4.4444647566800004 2.8836645678099999 62.5972192115999988 H
atom 5.1624090169679997 0.9419917880619999 68.1171519058499939 H
atom 1.0870641182240000 4.5584596851560004 66.9488467744249931 H
atom 2.3086884082320003 6.0388647527780002 63.2728331742750001 H
atom -0.8377299600440001 5.0221359359990005 68.7929450289500011 H
atom 3.2224809709600004 1.4030280490200000 66.2691121219749988 H
atom 4.8737309433560005 4.0535851264089997 63.8841285443749953 H
atom 3.1962139103120002 7.0113936293179995 69.4142733828499985 H
atom 0.6563914997480000 3.3877435131670000 65.6639082063249901 H
atom 1.0205323979680001 2.0132490534519998 70.5465672688499978 H
atom 0.4078261656839999 6.5180916289709998 72.4528341908499982 H
atom -0.1869679575080001 2.4384610133130002 71.7791909928500047 H
atom 2.3748065196560000 0.4490586630140000 71.1578626389500073 H
atom 3.5624990039040001 5.6338396744759995 75.5256146400249975 H
atom 4.5914858602640001 5.4652419642860002 81.0496680240500069 H
atom 2.0492207393320001 1.8432698691029998 76.0686498881999995 H
atom 4.4853322147879995 2.9016960603670001 73.6213184827000049 H
atom 5.2032749300320003 0.9600305134679999 79.1412511769500071 H
atom 1.1279300312880001 4.5764984105620004 77.9729460455250063 H
atom 2.3495543212959999 6.0569034781840001 74.2969324453749920 H
atom -0.7968640469800001 5.0401746614050005 79.8170443000500001 H
atom 3.2633468840240005 1.4210667744259999 77.2932113930749978 H
atom 4.9145984014640005 4.0716166189659999 74.9082278154750014 H
atom 3.2370813684200006 7.0294251218750006 80.4383726539499975 H
atom 0.6972640085720000 3.4057822385729999 76.6880074774250033 H
atom 1.0614064518360000 2.0312805460090000 81.5704873795250052 H
atom 0.4486920787479999 6.5361303543769997 83.4769334619500114 H
atom -0.1461004994000000 2.4564925058700000 82.8032902639500037 H
atom 2.4156724327200001 0.4670973884200000 82.1819619100500063 H
atom 3.6033715127279997 5.6518783998819995 86.5516846758000042 H
atom 4.6323649648479996 5.4832806896920001 92.0757380598249995 H
atom 2.0900932481559997 1.8613085945089998 87.0947199239749921 H
atom 4.5262113193720008 2.9197347857730001 84.6473885184750117 H
atom 5.2441540346160007 0.9780692388740001 90.1675003731500055 H
atom 1.1688025401119999 4.5945371359680003 88.9990160812999989 H
atom 2.3904268301200005 6.0749422035900000 85.3230024811499987 H
atom -0.7559915381560001 5.0582133868110004 90.8431143358249926 H
atom 3.3042193928479997 1.4391054998320001 88.3192814288500045 H
atom 4.9554709102879997 4.0896553443719998 85.9342978512500082 H
atom 3.2779604730039997 7.0474638472810005 91.4644426897250042 H
atom 0.7381365173959999 3.4238209639789998 87.7140775132000101 H
atom 1.1022789606600001 2.0493192714149999 92.5967365757250036 H
atom 0.4895645875720003 6.5541690797829997 94.5030034977250040 H
atom -0.1052279905760000 2.4745312312759999 93.8293602997249963 H
atom 2.4565515373040001 0.4851361138260000 93.2080319458249988 H
atom 3.6442374257919998 5.6699171252880003 97.5757839469000032 H
atom 4.6732324229560005 5.5013121822489994 103.0998373309249985 H
atom 2.1309591612200003 1.8793473199149999 98.1188191950750053 H
atom 4.5670772324360005 2.9377735111790000 95.6714877895749964 H
atom 5.2850199476800004 0.9961079642800000 101.1914204838249987 H
atom 1.2096699982200001 4.6125686285249996 100.0231153523999978 H
atom 2.4312993389439996 6.0929809289960000 96.3471017522499977 H
atom -0.7151174842880000 5.0762448793679997 101.8672136069250058 H
atom 3.3450853059119998 1.4571442252380000 99.3433806999500035 H
atom 4.9963434191119998 4.1076940697779998 96.9583971223500072 H
atom 3.3188263860679998 7.0655025726870004 102.4885419608250032 H
atom 0.7790024304600000 3.4418596893849998 98.7381767843000091 H
atom 1.1431448737240002 2.0673579968209999 103.6206566863999967 H
atom 0.5304386414400000 6.5722005723399999 105.5271027688250030 H
atom -0.0643620775120000 2.4925699566819999 104.8534595708250095 H
atom 2.4974189954120005 0.5031676063830001 104.2321312169249978 H
atom 3.6851165303759998 5.6879558506940002 108.6018539826750100 H
atom 4.7141049317799997 5.5193509076549994 114.1259073667000052 H
atom 2.1718382658040003 1.8973860453209999 109.1448892308500120 H
atom 4.6079497412599997 2.9558122365849999 106.6975578253500032 H
atom 5.3258924565039996 1.0141466896860001 112.2176696800250113 H
atom 1.2505491028040003 4.6306073539309995 111.0491853881750046 H
atom 2.4721718477680001 6.1110196544019999 107.3731717880250045 H
atom -0.6742465205080000 5.0942908376230003 112.8932836426999984 H
atom 3.3859644104960007 1.4751829506440000 110.3694507357249961 H
atom 5.0372159279360007 4.1257327951840006 107.9844671581249997 H
atom 3.3596988948920004 7.0835412980930004 113.5146119966000100 H
atom 0.8198815350440001 3.4598984147909997 109.7642468200749875 H
atom 1.1840173825480000 2.0853967222269998 114.6469058826000094 H
atom 0.5713111502639999 6.5902392977459998 116.5531728046000097 H
atom -0.0234829729280000 2.5106086820879998 115.8795296066000020 H
atom 2.5382899591919998 0.5212135646379999 115.2582012527000046 H
atom 3.7259824434400004 5.7059945761000002 119.6259532537750090 H
atom 4.7549708448440002 5.5373896330609993 125.1500066378000042 H
atom 2.2127057239119998 1.9154175378780001 120.1689885019500110 H
atom 4.6488222500839997 2.9738509619909999 117.7216570964500164 H
atom 5.3667665103720008 1.0321781822430001 123.2415897907000186 H
atom 1.2914150158680000 4.6486460793369995 122.0732846592750178 H
atom 2.5130377608320003 6.1290583798079998 118.3972710591250035 H
atom -0.6333790624000001 5.1123223301799996 123.9173829138000116 H
atom 3.4268318686040002 1.4932144432009999 121.3935500068249951 H
atom 5.0780818410000004 4.1437715205900005 119.0085664292249987 H
atom 3.4005648079560009 7.1015800234990003 124.5387112676999948 H
atom 0.8607489931520000 3.4779299073479999 120.7883460911750007 H
atom 1.2248898913720001 2.1034354476329997 125.6708259932750025 H
atom 0.6121770633279999 6.6082780231519997 127.5772720757000087 H
atom 0.0173829401360000 2.5286474074939997 126.9036288777000010 H
atom 2.5791640130600002 0.5392450571949999 126.2823005238000036 H
atom 3.7668549522640000 5.7240333015060001 130.6520232895499873 H
atom 4.7958499494280007 5.5554283584669992 136.1760766735749826 H
atom 2.2535782327360003 1.9334562632840000 131.1950585377250036 H
atom 4.6896947589080007 2.9918896873969998 128.7477271322249806 H
atom 5.4076374741520006 1.0502241404979999 134.2678389868999886 H
atom 1.3322875246920003 4.6666848047429994 133.0993546950499820 H
atom 2.5539168654159998 6.1470971052139998 129.4233410948999961 H
atom -0.5924999578160000 5.1303610555859995 134.9434529495750041 H
atom 3.4677043774279999 1.5112531686069999 132.4196200426000019 H
atom 5.1189609455839999 4.1618102459960005 130.0346364650000055 H
atom 3.4414439125400000 7.1196187489050002 135.5647813034750016 H
atom 0.9016199569320000 3.4959758656030000 131.8144161269499932 H
atom 1.2657624001959999 2.1214741730389997 136.6970751894749867 H
atom 0.6530561679120001 6.6263167485579997 138.6033421114750013 H
atom 0.0582554489600000 2.5466861329000001 137.9296989134749936 H
atom 2.6200365218840003 0.5572837826010001 137.3083705595750246 H
atom 2.5119095293879998 5.2525889708369995 41.9667171124250018 C
atom -1.2011415944079999 5.7379782343779997 47.4868289671000028 C
atom 2.8550498746240001 2.1165052057759999 43.4748895700749998 C
atom 4.0530684966079997 3.2794315993919998 41.5041248950750017 C
atom 5.3966762318520001 0.4785035912930000 47.0242367497499956 C
atom 1.3139881177600004 4.0898867955400000 43.9414233167750012 C
atom 0.0129031344000000 1.6503914848199999 48.9849684409499986 C
atom 0.0105903324200000 6.9097937994150005 49.4454107331999992 C
atom 2.5527754424519999 5.2706276962429994 52.9908163835250008 C
atom -1.1602741363000002 5.7560097269349999 58.5109282382000018 C
atom 2.8959223834480001 2.1345439311819998 54.4989888411749988 C
atom 4.0939410054319998 3.2974703247979997 52.5282241661750007 C
atom 5.4375487406760001 0.4965423166990000 58.0483360208500017 C
atom 1.3548621716279998 4.1079182880970002 54.9655225878750002 C
atom 0.0537690474640000 1.6684302102259998 60.0090677120500047 C
atom 0.0514577905279999 6.9278252919719998 60.4695100042999982 C
atom 2.5936479512760000 5.2886664216490002 64.0168864193000076 C
atom -1.1194016274760001 5.7740484523409998 69.5369982739750014 C
atom 2.9367948922720002 2.1525826565879997 65.5250588769499984 C
atom 4.1348135142560007 3.3155090502040001 63.5542942019500003 C
atom 5.4784212495000002 0.5145810421050000 69.0744060566250084 C
atom 1.3957346804520001 4.1259570135030001 65.9915926236500070 C
atom 0.0946481520480000 1.6864689356320000 71.0351377478250043 C
atom 0.0923302993520000 6.9458640173779997 71.4955800400749979 C
atom 2.6345220051440004 5.3066979142059996 75.0409856904000065 C
atom -1.0785291186520001 5.7920871777469998 80.5610975450750004 C
atom 2.9776608053360003 2.1706213819939997 76.5491581480499974 C
atom 4.1756794273200004 3.3335477756100000 74.5783934730499993 C
atom 5.5192887076080002 0.5326125346620000 80.0985053277250074 C
atom 1.4366005935160002 4.1439957389090001 77.0156918947499918 C
atom 0.1355140651120000 1.7045076610380001 82.0592370189250033 C
atom 0.1331962124160000 6.9639027427839997 82.5196793111749969 C
atom 2.6753945139680000 5.3247366396119995 86.0670557261749991 C
atom -1.0376566098280000 5.8101259031530006 91.5871675808500072 C
atom 3.0185399099200003 2.1886601073999996 87.5752281838250042 C
atom 4.2165585319040000 3.3515865010160000 85.6044635088249919 C
atom 5.5601678121919997 0.5506512600680000 91.1245753635000000 C
atom 1.4774796981000000 4.1620344643150000 88.0417619305249985 C
atom 0.1763865739360000 1.7225463864440000 93.0853070547000101 C
atom 0.1740753170000002 6.9819414681899996 93.5457493469500037 C
atom 2.7162604270320001 5.3427753650179994 97.0911549972750123 C
atom -0.9967906967640001 5.8281646285590005 102.6112668519499920 C
atom 3.0594073680280003 2.2066915999569998 98.5993274549250032 C
atom 4.2574244449679997 3.3696252264219999 96.6285627799249909 C
atom 5.6010337252560003 0.5686899854740000 102.1486746345999990 C
atom 1.5183456111639997 4.1800731897209999 99.0658612016250117 C
atom 0.2172590827600000 1.7405851118500000 104.1094063257999949 C
atom 0.2149412300640002 6.9999801935959995 104.5698486180500026 C
atom 2.7571395316160006 5.3608140904239994 108.1172250330499907 C
atom -0.9559115921800001 5.8462033539650005 113.6373368877249987 C
atom 3.1002798768520003 2.2247303253629997 109.6253974906999957 C
atom 4.2982969537920006 3.3876639518279998 107.6546328156999976 C
atom 5.6419062340800004 0.5867287108800000 113.1747446703750057 C
atom 1.5592181199880004 4.1981119151269999 110.0919312374000043 C
atom 0.2581315915840000 1.7586238372559999 115.1354763615750016 C
atom 0.2558137388880001 7.0180189190019995 115.5959186538250094 C
atom 2.7980054446799998 5.3788528158300002 119.1413243041500039 C
atom -0.9150456791160001 5.8642420793710004 124.6614361588249977 C
atom 3.1411457899160009 2.2427690507690001 120.6494967618000089 C
atom 4.3391644118999997 3.4056954443849996 118.6787320867999966 C
atom 5.6827721471440000 0.6047674362859999 124.1988439414750047 C
atom 1.6000840330519996 4.2161506405329998 121.1160305084999891 C
atom 0.2989990496920001 1.7766553298129999 126.1595756326750006 C
atom 0.2966796519520001 7.0360576444079994 126.6200179249249942 C
atom 2.8388779535039999 5.3968915412360001 130.1673943399250106 C
atom -0.8741731702920000 5.8822808047770003 135.6875061946000187 C
atom 3.1820248945000005 2.2608077761750001 131.6755667975750157 C
atom 4.3800435164840001 3.4237341697909995 129.7049812830000235 C
atom 5.7236512517279996 0.6228061616920000 135.2249139772500257 C
atom 1.6409631376359999 4.2341893659389997 132.1421005442749959 C
atom 0.3398766092320001 1.7947012880680000 137.1856456684500074 C
atom 0.3375587565360003 7.0540963698139993 137.6460879606999868 C
atom 2.7936316335039999 3.9597244449359996 41.3513010525499993 N
atom -1.4865050069640000 7.0287452340689995 46.8674713778750061 N
atom 2.5737172722240000 3.4097386069760001 44.0922763946249958 N
atom 1.4277319344680000 5.1835152628870000 42.9400957014499980 N
atom 3.9386826423839998 2.1850726142959997 42.5036609061500030 N
atom 5.5194154648720009 1.5777881465579999 48.0176813063750032 N
atom 1.8679185570360002 3.4227360366289998 40.4544239650000037 N
atom 0.9809572260079999 0.3324072743420000 45.9664736005500032 N
atom 3.4994173381720000 3.9465100298130000 44.9891534821749985 N
atom 0.2482102534120000 5.8399975695229998 42.6484225295500039 N
atom 1.0646134271840000 5.1499620763760001 48.1585014004250027 N
atom 5.1183053377599999 1.5287349646399999 42.7951549176249983 N
atom 0.2980181669960000 0.3595521566390000 49.6043260301749953 N
atom -0.1117644495999999 5.8108708866000001 48.4521453370000046 N
atom 4.4261269159040006 7.0558177878759993 50.5031738824000058 N
atom 4.3429211233279998 2.2386246282919999 48.3113252429500051 N
atom 2.8345056873720003 3.9777559374930003 52.3754003236499983 N
atom -1.4456390939000001 7.0467839594749995 57.8915706489749979 N
atom 2.6145847303320005 3.4277700995329998 55.1163756657250019 N
atom 1.4686044432920000 5.2015539882930000 53.9640158121249982 N
atom 3.9795485554479999 2.2031113397019997 53.5277601772499949 N
atom 5.5602895187400003 1.5958196391149999 59.0417805774749951 N
atom 1.9087844700999999 3.4407747620349998 51.4785232360999956 N
atom 1.0218246841159999 0.3504387668990000 56.9905728716500022 N
atom 3.5402847962800004 3.9645415223699998 56.0132527532750046 N
atom 0.2890761664760000 5.8580362949289997 53.6725218006500029 N
atom 1.1054808852920002 5.1679935689329994 59.1826006715250017 N
atom 5.1591778465839999 1.5467736900459998 53.8192541887250044 N
atom 0.3388856251040000 0.3775836491960000 60.6284253012750014 N
atom -0.0708985365360002 5.8289096120060000 59.4760654476750048 N
atom 4.4669928289680003 7.0738565132820002 61.5272731535000048 N
atom 4.3837870363920004 2.2566633536979999 59.3354245140499970 N
atom 2.8753766511520000 3.9958018957480004 63.4014703594249980 N
atom -1.4047599893160001 7.0648226848810003 68.9176406847499976 N
atom 2.6554622898720002 3.4458160577879999 66.1424457015000087 N
atom 1.5094769521159999 5.2195927136989999 64.9902650083249966 N
atom 4.0204276600320004 2.2211500651079996 64.5538302130249946 N
atom 5.6011620275639995 1.6138583645209998 70.0678506132500019 N
atom 1.9496569789240001 3.4588134874409997 62.5045932718750024 N
atom 1.0626971929400002 0.3684774923050000 68.0166429074250090 N
atom 3.5811573051040000 3.9825802477759997 67.0393227890500043 N
atom 0.3299552710599999 5.8760750203349996 64.6985918364250097 N
atom 1.1463599898760000 5.1860322943389994 70.2086707073000014 N
atom 5.2000503554080000 1.5648124154520000 64.8453242245000041 N
atom 0.3797647296880000 0.3956223746019999 71.6544953370500082 N
atom -0.0300260277120000 5.8469483374119999 70.5023146438749961 N
atom 4.5078719335519999 7.0918952386880001 72.5533431892750116 N
atom 4.4246661409760000 2.2747020791039998 70.3614945498249966 N
atom 2.9162441092600004 4.0138333883049997 74.4255696305250041 N
atom -1.3638940762520000 7.0828614102870002 79.9417399558499966 N
atom 2.6963297479800001 3.4638475503450001 77.1665449725999935 N
atom 1.5503428651800000 5.2376314391049998 76.0143642794250098 N
atom 4.0612935730960000 2.2391887905139995 75.5779294841250078 N
atom 5.6420279406280001 1.6318970899270000 81.0919498843500008 N
atom 1.9905310327920003 3.4768449799979999 73.5286925429750085 N
atom 1.1035697017639998 0.3865162177110000 79.0407421785249937 N
atom 3.6220298139279996 4.0006189731820001 78.0634220601500033 N
atom 0.3708211841240001 5.8941137457409996 75.7226911075250086 N
atom 1.1872259029400001 5.2040710197449993 81.2327699784000004 N
atom 5.2409162684720005 1.5828511408579999 75.8694234956000031 N
atom 0.4206306427520000 0.4136611000080000 82.6785946081500072 N
atom 0.0108414303960001 5.8649798299689992 81.5262347545500035 N
atom 4.5487393916599999 7.1099267312450003 83.5774424603749964 N
atom 4.4655320540399996 2.2927408045099997 81.3855938209250098 N
atom 2.9571232138440000 4.0318721137109996 85.4516396662999966 N
atom -1.3230215674280001 7.1009001356930002 90.9678099916250034 N
atom 2.7372022568040006 3.4818862757510001 88.1926150083750002 N
atom 1.5912219697640002 5.2556701645109998 87.0404343152000024 N
atom 4.1021660819200001 2.2572275159199999 86.6039995199000003 N
atom 5.6829070452120005 1.6499358153329999 92.1180199201249934 N
atom 2.0314035416160001 3.4948837054039998 84.5547625787500010 N
atom 1.1444422105880001 0.4045549431170000 90.0668122143000147 N
atom 3.6629023227520001 4.0186576985880000 89.0894920959250101 N
atom 0.4116936929479998 5.9121524711469995 86.7487611433000012 N
atom 1.2280984117640004 5.2221097451509992 92.2588400141750071 N
atom 5.2817953730560001 1.6008898662640001 86.8954935313749957 N
atom 0.4615031515760000 0.4316998254140000 93.7046646439249997 N
atom 0.0517205349800000 5.8830185553749992 92.5524839507500019 N
atom 4.5896119004840008 7.1279654566510002 94.6035124961500031 N
atom 4.5064045628640006 2.3107795299159997 92.4116638567000024 N
atom 2.9979891269080001 4.0499108391170004 96.4757389373999956 N
atom -1.2821556543640000 7.1189388610990001 101.9919092627250023 N
atom 2.7780681698680003 3.4999250011570000 99.2167142794750134 N
atom 1.6320894278720000 5.2737016570680000 98.0645335862999872 N
atom 4.1430319949840007 2.2752662413260003 97.6280987909999993 N
atom 5.7237729582760002 1.6679745407390001 103.1421191912250066 N
atom 2.0722694546800002 3.5129224308100002 95.5788618498500000 N
atom 1.1853081236520000 0.4225936685230000 101.0909114853999995 N
atom 3.7037682358160007 4.0366964239940000 100.1135913670249948 N
atom 0.4525611510559999 5.9301839637039997 97.7728604144000002 N
atom 1.2689643248280000 5.2401484705570001 103.2829392852749919 N
atom 5.3226612861199998 1.6189285916700000 97.9195928024750089 N
atom 0.5023756604000000 0.4497385508200000 104.7287639150249987 N
atom 0.0925864480440000 5.9010572807810000 103.5764040614249950 N
atom 4.6304778135479996 7.1460041820570002 105.6276117672500021 N
atom 4.5472720209720006 2.3288110224729999 103.4357631278000014 N
atom 3.0388616357320002 4.0679495645230004 107.5018089731750024 N
atom -1.2412765497800000 7.1369775865050000 113.0179792985000091 N
atom 2.8189472744519999 3.5179637265629999 110.2427843152500060 N
atom 1.6729619366960002 5.2917403824739999 109.0906036220749940 N
atom 4.1839110995679993 2.2933049667320002 108.6541688267749919 N
atom 5.7646454671000003 1.6860132661450000 114.1681892270000134 N
atom 2.1131419635039999 3.5309611562160002 106.6049318856250068 N
atom 1.2261872282360000 0.4406323939290000 112.1169815211750063 N
atom 3.7446407446400003 4.0547351493999999 111.1396614028000016 N
atom 0.4934402556400000 5.9482226891099996 108.7989304501750070 N
atom 1.3098434294120000 5.2581871959630000 114.3090093210499987 N
atom 5.3635337949440007 1.6369673170760000 108.9458419986750073 N
atom 0.5432481692240001 0.4677772762260000 115.7548339508000055 N
atom 0.1334589568680002 5.9190960061869999 114.6026532576250077 N
atom 4.6713569181320000 7.1640429074630001 116.6536818030250089 N
atom 4.5881511255560001 2.3468497478789998 114.4618331635749939 N
atom 3.0797275487960003 4.0859882899290003 118.5259082442750014 N
atom -1.2004090916720001 7.1550090790619993 124.0420785695999939 N
atom 2.8598131875160000 3.5360024519689999 121.2668835863499908 N
atom 1.7138278497600004 5.3097791078799998 120.1147028931750071 N
atom 4.2247785576759993 2.3113364592890000 119.6782680978750051 N
atom 5.8055113801640008 1.7040519915510000 125.1922884980999982 N
atom 2.1540144723279999 3.5489998816220001 117.6290311567249915 N
atom 1.2670531412999999 0.4586711193350000 123.1410807922750053 N
atom 3.7855132534639999 4.0727738748059998 122.1637606739000148 N
atom 0.5343061687040001 5.9662614145159996 119.8230297212750060 N
atom 1.3507108875199998 5.2762186885200002 125.3331085921500119 N
atom 5.4044012530519998 1.6549988096329999 119.9697621093500146 N
atom 0.5841140822880000 0.4858160016320000 126.7789332219000045 N
atom 0.1743248699319999 5.9371347315929999 125.6267525287249924 N
atom 4.7122228311960006 7.1820816328690000 127.6777810741249937 N
atom 4.6290170386199998 2.3648884732850002 125.4859324346750071 N
atom 3.1206066533799999 4.1040270153350003 129.5519782800500082 N
atom -1.1595381278920001 7.1730550373169999 135.0681486053750007 N
atom 2.9006856963400005 3.5540411773749998 132.2929536221249975 N
atom 1.7547069543440001 5.3278178332859998 131.1407729289500139 N
atom 4.2656510665000003 2.3293751846949999 130.7043381336499976 N
atom 5.8463904847479995 1.7220907169569999 136.2183585338750049 N
atom 2.1948869811520004 3.5670386070280000 128.6551011924999841 N
atom 1.3079256501240002 0.4767098447410000 134.1671508280500120 N
atom 3.8263857622880004 4.0908126002119998 133.1898307096750216 N
atom 0.5751786775280000 5.9843001399219995 130.8490997570499985 N
atom 1.3915818513000000 5.2942646467749999 136.3591786279250186 N
atom 5.4452803576360003 1.6730375350389999 130.9960113055500130 N
atom 0.6249931868720000 0.5038547270380000 137.8050032576750255 N
atom 0.2152039745159999 5.9551734569990007 136.6528225644999850 N
atom 4.7530953400199998 7.2001203582750000 138.7038511099000004 N
atom 4.6698895474440008 2.3829271986910001 136.5120024704499997 N
atom 0.8558396531160002 4.0964035924889997 40.2333400005500010 O
atom 0.4489385744479998 6.8929629597919995 45.7453896361000005 O
atom 4.5114406842160006 3.2727629126140001 45.2084458423749993 O
atom 2.1268398137280005 2.3103744903719998 40.0000731271999967 O
atom 0.7183061777840001 1.4430546353859999 45.5099728376500039 O
atom 3.2407005500399997 5.0588715760699996 45.4456542450750050 O
atom 0.2842636995440000 6.7720731216059997 41.8400506919499975 O
atom 1.0224259748720002 4.2138722930979995 47.3560418568499983 O
atom 5.0819927600680002 0.5962977701070000 43.6015559905500041 O
atom -0.7555637127560000 5.4546458405009997 43.2738715732250014 O
atom 6.1222424718840003 1.9143109119809998 42.1718557990500003 O
atom 3.3353689798480004 1.8528967911220000 47.6939384184000019 O
atom 4.9581301170240000 0.4953344309160000 50.7244370072750002 O
atom 4.6884146644520008 5.9450185370029995 50.9596746453000051 O
atom 4.3852382319200007 3.1747867400600001 49.1157555512000030 O
atom 2.0721320589880001 5.5355380237169998 48.7758882249750059 O
atom 0.8967071112240002 4.1144350850459999 51.2574392716500071 O
atom 0.4898060325560000 6.9109944523490006 56.7693097467750007 O
atom 4.5523065972800003 3.2908016380200000 56.2325451134750054 O
atom 2.1677057267920001 2.3284132157779998 51.0239932378750041 O
atom 0.7591720908480001 1.4610933607920000 56.5340721087500029 O
atom 3.2815664631039998 5.0769103014759995 56.4697535161750039 O
atom 0.3251296126080003 6.7901118470119997 52.8641499630500036 O
atom 1.0632918879360000 4.2319110185039994 58.3801411279499973 O
atom 5.1228668139360005 0.6143292626640000 54.6256552616500031 O
atom -0.7146962546480001 5.4726773330579999 54.2979708443250004 O
atom 6.1631083849480008 1.9323496373869999 53.1959550701500063 O
atom 3.3762348929120001 1.8709355165280002 58.7180376894999938 O
atom 4.9989960300880005 0.5133731563220000 61.7485362783749991 O
atom 4.7292805775160005 5.9630572624089995 61.9837739164000041 O
atom 4.4261041449839995 3.1928254654660000 60.1396756618750032 O
atom 2.1129979720519998 5.5535767491230006 59.7999874960749978 O
atom 0.9375780750040001 4.1324810433009995 62.2835093074249997 O
atom 0.5306785413800001 6.9290331777550005 67.7955589429750063 O
atom 4.5931791061039995 3.3088403634260000 67.2586151492500051 O
atom 2.2085848313760001 2.3464519411839997 62.0502424340750025 O
atom 0.8000511954320000 1.4791320861980000 67.5601421445250025 O
atom 3.3224389719280003 5.0949490268819995 67.4958235519500107 O
atom 0.3660087171920000 6.8081505724179996 63.8902199988250032 O
atom 1.1041643967600001 4.2499497439099994 69.4062111637250041 O
atom 5.1637377777159994 0.6323752209190000 65.6517252974250027 O
atom -0.6738237458240001 5.4907160584639998 65.3240408801000001 O
atom -0.3917725104680000 1.9503883627929999 64.2220251059249989 O
atom 3.4171139974960001 1.8889742419340001 69.7441077252750006 O
atom 5.0398751346720001 0.5314118817279999 72.7746063141500059 O
atom 4.7701530863400006 5.9810959878149994 73.0098439521750038 O
atom 4.4669766538080005 3.2108641908719999 71.1659248580750017 O
atom 2.1538704808759999 5.5716154745290005 70.8260575318499974 O
atom 0.9784455331120001 4.1505125358579997 73.3076085785250058 O
atom 0.5715510502039999 6.9470719031610004 78.8194790536499994 O
atom 4.6340450191680000 3.3268790888319999 78.2827144203500040 O
atom 2.2494522894840006 2.3644834337409999 73.0743417051750015 O
atom 0.8409171084959999 1.4971708116040001 78.5842414156250015 O
atom 3.3633064300359998 5.1129805194389997 78.5199228230499955 O
atom 0.4068746302560000 6.8261892978239995 74.9143192699250022 O
atom 1.1450318548680003 4.2679812364670004 80.4303104348250031 O
atom 5.2046052358240003 0.6504067134760000 76.6758245685250017 O
atom -0.6329512370000001 5.5087547838699997 76.3481401511999991 O
atom -0.3509065974040000 1.9684270881989998 75.2461243770249979 O
atom 3.4579799105599998 1.9070129673400000 80.7682069963749996 O
atom 5.0807425927800001 0.5494433742850000 83.7987055852500049 O
atom 4.8110255951639997 5.9991347132209993 84.0339432232750028 O
atom 4.5078441119160004 3.2288956834290001 82.1900241291750007 O
atom 2.1947363939400000 5.5896541999350005 81.8501568029499964 O
atom 1.0193246376960003 4.1685512612639997 84.3336786143000126 O
atom 0.6124235590280001 6.9651106285670004 89.8457282498499978 O
atom 4.6749241237520005 3.3449178142379998 89.3087844561250108 O
atom 2.2903232532640003 2.3825293919959996 84.1004117409500083 O
atom 0.8817896173200001 1.5152095370100001 89.6103114513999941 O
atom 3.4041855346199998 5.1310192448449996 89.5459928588250023 O
atom 0.4477471390800001 6.8442280232299995 85.9403893056999948 O
atom 1.1859094144079998 4.2860271947220001 91.4563804706000099 O
atom 5.2454843404079998 0.6684454388820000 87.7018946043000085 O
atom -0.5920787281760000 5.5267935092759997 87.3742101869749916 O
atom -0.3100340885800000 1.9864658136049997 86.2721944128000047 O
atom 3.4988524193840003 1.9250516927460000 91.7942770321499921 O
atom 5.1216151016040010 0.5674820996909999 94.8247756210249975 O
atom 4.8518981039879998 6.0171734386269993 95.0600132590499953 O
atom 4.5487216714559997 3.2469416416839998 93.2160941649500074 O
atom 2.2356154985240000 5.6076929253410004 92.8762268387250032 O
atom 1.0601905507600000 4.1865899866699996 95.3577778854000115 O
atom 0.6532894720919998 6.9831493539730003 100.8698275209500110 O
atom 4.7157915818599996 3.3629493067950000 100.3328837272249956 O
atom 2.3311973071319998 2.4005608845529998 95.1245110120500073 O
atom 0.9226555303839998 1.5332482624160000 100.6344107224999931 O
atom 3.4450514476840004 5.1490579702509995 100.5700921299250012 O
atom 0.4886145971879998 6.8622595157869997 96.9644885768000080 O
atom 1.2267768725159998 4.3040586872790003 102.4804797416999946 O
atom 5.2863502534720004 0.6864841642880000 98.7259938753999933 O
atom -0.5512128151120002 5.5448322346820005 98.3983094580750048 O
atom -0.2691681755160001 2.0045045390110001 97.2962936839000037 O