#=======================================================
# FHI-aims file: ./geometry.in
# Created using the Atomic Simulation Environment (ASE)
# Tue Feb 11 11:37:57 2020
#=======================================================
lattice_vector 6.5957600000000003 0.0000000000000000 0.0000000000000000 
lattice_vector -1.5450440000000001 7.2328489999999999 0.0000000000000000 
lattice_vector 0.0000000000000000 0.0000000000000000 101.9838120000000004 
atom_frac 0.7022389999999999 0.7714430000000000 0.4162560000000000 H
atom_frac 0.8527860000000000 0.7481320000000000 0.4704220000000000 H
atom_frac 0.3500430000000000 0.2473650000000000 0.4215800000000000 H
atom_frac 0.7536680000000000 0.3937020000000000 0.3975830000000000 H
atom_frac 0.7996330000000000 0.1252500000000000 0.4517100000000000 H
atom_frac 0.2988840000000000 0.6252560000000000 0.4402530000000000 H
atom_frac 0.5320430000000000 0.8299350000000000 0.4042080000000000 H
atom_frac 0.0220780000000000 0.6893629999999999 0.4583350000000000 H
atom_frac 0.5204460000000000 0.1889920000000000 0.4335880000000000 H
atom_frac 0.8566390000000000 0.5554530000000000 0.4102020000000000 H
atom_frac 0.6981000000000001 0.9643940000000000 0.4644280000000000 H
atom_frac 0.1956740000000000 0.4633950000000000 0.4276530000000000 H
atom_frac 0.2063670000000000 0.2733600000000000 0.4755290000000000 H
atom_frac 0.2593690000000000 0.8961910000000000 0.4942230000000000 H
atom_frac 0.0370650000000000 0.3321490000000000 0.4876170000000000 H
atom_frac 0.3610330000000000 0.0570980000000000 0.4815240000000000 H
atom_frac 0.7090190000000000 0.7739360000000000 0.5243520000000000 H
atom_frac 0.8595670000000000 0.7506260000000000 0.5785190000000000 H
atom_frac 0.3568230000000001 0.2498590000000000 0.5296760000000000 H
atom_frac 0.7604480000000000 0.3961950000000000 0.5056790000000000 H
atom_frac 0.8064130000000000 0.1277440000000000 0.5598060000000000 H
atom_frac 0.3056640000000000 0.6277500000000000 0.5483500000000000 H
atom_frac 0.5388230000000001 0.8324279999999999 0.5123040000000000 H
atom_frac 0.0288580000000000 0.6918570000000001 0.5664310000000000 H
atom_frac 0.5272260000000000 0.1914860000000000 0.5416850000000000 H
atom_frac 0.8634190000000002 0.5579470000000000 0.5182990000000000 H
atom_frac 0.7048810000000000 0.9668869999999999 0.5725240000000000 H
atom_frac 0.2024540000000000 0.4658890000000000 0.5357490000000000 H
atom_frac 0.2131470000000000 0.2758540000000000 0.5836260000000000 H
atom_frac 0.2661490000000000 0.8986850000000000 0.6023190000000000 H
atom_frac 0.0438450000000000 0.3346419999999999 0.5957130000000000 H
atom_frac 0.3678130000000000 0.0595920000000000 0.5896200000000000 H
atom_frac 0.5509510000000000 0.7262130000000000 0.4115040000000000 C
atom_frac 0.0037260000000000 0.7933220000000000 0.4656310000000000 C
atom_frac 0.5014080000000000 0.2926240000000000 0.4262930000000000 C
atom_frac 0.7207060000000000 0.4534080000000000 0.4069680000000000 C
atom_frac 0.8337010000000000 0.0661570000000000 0.4610960000000000 C
atom_frac 0.3316750000000001 0.5654600000000000 0.4308670000000000 C
atom_frac 0.0554070000000000 0.2281800000000000 0.4803210000000000 C
atom_frac 0.2253910000000000 0.9553350000000000 0.4848370000000000 C
atom_frac 0.5577309999999999 0.7287069999999999 0.5196000000000000 C
atom_frac 0.0105060000000000 0.7958150000000001 0.5737270000000000 C
atom_frac 0.5081890000000000 0.2951180000000000 0.5343890000000000 C
atom_frac 0.7274870000000000 0.4559020000000000 0.5150650000000000 C
atom_frac 0.8404820000000000 0.0686510000000000 0.5691920000000000 C
atom_frac 0.3384560000000000 0.5679530000000000 0.5389640000000000 C
atom_frac 0.0621870000000000 0.2306740000000000 0.5884170000000000 C
atom_frac 0.2321710000000000 0.9578280000000000 0.5929330000000000 C
atom_frac 0.5517919999999999 0.5474640000000000 0.4054700000000000 N
atom_frac 0.0022650000000000 0.9717810000000000 0.4595580000000000 N
atom_frac 0.5006380000000000 0.4714240000000000 0.4323460000000000 N
atom_frac 0.3843390000000000 0.7166630000000000 0.4210470000000000 N
atom_frac 0.6679210000000000 0.3021040000000000 0.4167690000000000 N
atom_frac 0.8879120000000000 0.2181420000000000 0.4708360000000000 N
atom_frac 0.3940510000000000 0.4732210000000000 0.3966750000000000 N
atom_frac 0.1594910000000000 0.0459580000000000 0.4507240000000000 N
atom_frac 0.6583700000000000 0.5456370000000000 0.4411410000000000 N
atom_frac 0.2267700000000000 0.8074270000000000 0.4181880000000000 N
atom_frac 0.3281990000000000 0.7120240000000000 0.4722170000000000 N
atom_frac 0.8255100000000000 0.2113600000000000 0.4196280000000000 N
atom_frac 0.0568280000000000 0.0497110000000000 0.4863940000000000 N
atom_frac 0.1712500000000000 0.8034000000000000 0.4750960000000000 N
atom_frac 0.8995710000000000 0.9755239999999999 0.4952080000000000 N
atom_frac 0.7309430000000000 0.3095080000000000 0.4737150000000000 N
atom_frac 0.5585730000000000 0.5499570000000000 0.5135660000000000 N
atom_frac 0.0090450000000000 0.9742749999999999 0.5676540000000000 N
atom_frac 0.5074180000000000 0.4739170000000000 0.5404420000000000 N
atom_frac 0.3911200000000000 0.7191570000000000 0.5291439999999999 N
atom_frac 0.6747010000000000 0.3045980000000000 0.5248650000000000 N
atom_frac 0.8946930000000000 0.2206350000000000 0.5789330000000000 N
atom_frac 0.4008310000000000 0.4757150000000000 0.5047720000000000 N
atom_frac 0.1662710000000000 0.0484510000000000 0.5588200000000000 N
atom_frac 0.6651500000000000 0.5481300000000000 0.5492370000000000 N
atom_frac 0.2335500000000000 0.8099210000000000 0.5262850000000000 N
atom_frac 0.3349790000000000 0.7145170000000000 0.5803130000000000 N
atom_frac 0.8322909999999999 0.2138540000000000 0.5277240000000000 N
atom_frac 0.0636080000000000 0.0522040000000000 0.5944910000000000 N
atom_frac 0.1780300000000000 0.8058940000000000 0.5831920000000000 N
atom_frac 0.9063510000000000 0.9780180000000001 0.6033050000000000 N
atom_frac 0.7377230000000000 0.3120020000000000 0.5818120000000000 N
atom_frac 0.2624250000000000 0.5663610000000000 0.3945060000000000 O
atom_frac 0.2913050000000000 0.9530080000000000 0.4485550000000000 O
atom_frac 0.7899850000000000 0.4524860000000000 0.4432900000000000 O
atom_frac 0.3972810000000001 0.3194280000000000 0.3922190000000000 O
atom_frac 0.1556400000000000 0.1995140000000000 0.4462480000000000 O
atom_frac 0.6551709999999999 0.6994300000000000 0.4456169999999999 O
atom_frac 0.2624230000000000 0.9362940000000000 0.4102610000000000 O
atom_frac 0.2914860000000000 0.5826020000000000 0.4643490000000001 O
atom_frac 0.7898060000000000 0.0824430000000000 0.4275350000000000 O
atom_frac 0.0621050000000000 0.7541490000000000 0.4243210000000000 O
atom_frac 0.9902069999999999 0.2646690000000000 0.4135150000000000 O
atom_frac 0.5656930000000000 0.2561780000000000 0.4676620000000000 O
atom_frac 0.7677570000000000 0.0684840000000000 0.4973770000000000 O
atom_frac 0.9033620000000000 0.8219470000000000 0.4996850000000000 O
atom_frac 0.7676780000000000 0.4389400000000000 0.4816030000000000 O
atom_frac 0.4934390000000000 0.7653329999999999 0.4782700000000000 O
atom_frac 0.2692050000000000 0.5688540000000000 0.5026030000000000 O
atom_frac 0.2980850000000000 0.9555010000000000 0.5566510000000000 O
atom_frac 0.7967649999999999 0.4549800000000000 0.5513860000000000 O
atom_frac 0.4040610000000000 0.3219220000000000 0.5003150000000000 O
atom_frac 0.1624200000000000 0.2020080000000000 0.5543439999999999 O
atom_frac 0.6619510000000000 0.7019240000000000 0.5537130000000000 O
atom_frac 0.2692030000000000 0.9387880000000000 0.5183580000000000 O
atom_frac 0.2982660000000000 0.5850959999999999 0.5724450000000000 O
atom_frac 0.7965869999999999 0.0849360000000000 0.5356310000000000 O
atom_frac 0.0688850000000000 0.7566420000000000 0.5324170000000000 O
atom_frac 0.9969870000000001 0.2671630000000000 0.5216110000000000 O
atom_frac 0.5724730000000000 0.2586720000000000 0.5757580000000000 O
atom_frac 0.7745370000000000 0.0709780000000000 0.6054740000000000 O
atom_frac 0.9101420000000001 0.8244410000000000 0.6077810000000000 O
atom_frac 0.7744579999999999 0.4414340000000000 0.5896990000000000 O
atom_frac 0.5002190000000000 0.7678270000000001 0.5863670000000000 O
