#=======================================================
# FHI-aims file: ./geometry.in
# Created using the Atomic Simulation Environment (ASE)
# Sat Feb 15 07:30:34 2020
#=======================================================
lattice_vector 6.5957600000000003 0.0000000000000000 0.0000000000000000 
lattice_vector -1.5450440000000001 7.2328489999999999 0.0000000000000000 
lattice_vector 0.0000000000000000 0.0000000000000000 223.2607720000000029 
atom_frac 0.7022389999999999 0.7714430000000000 0.1901420000000000 H
atom_frac 0.8527860000000000 0.7481320000000001 0.2148850000000000 H
atom_frac 0.3500430000000000 0.2473650000000000 0.1925740000000000 H
atom_frac 0.7536680000000000 0.3937020000000001 0.1816130000000000 H
atom_frac 0.7996330000000001 0.1252500000000000 0.2063370000000000 H
atom_frac 0.2988840000000000 0.6252560000000001 0.2011040000000000 H
atom_frac 0.5320430000000000 0.8299350000000001 0.1846390000000000 H
atom_frac 0.0220780000000000 0.6893630000000001 0.2093640000000000 H
atom_frac 0.5204460000000000 0.1889920000000000 0.1980600000000000 H
atom_frac 0.8566390000000002 0.5554530000000000 0.1873770000000000 H
atom_frac 0.6981000000000002 0.9643940000000000 0.2121470000000000 H
atom_frac 0.1956740000000000 0.4633950000000001 0.1953490000000000 H
atom_frac 0.2063670000000000 0.2733600000000000 0.2172180000000000 H
atom_frac 0.2593690000000001 0.8961910000000001 0.2257570000000000 H
atom_frac 0.0370650000000000 0.3321490000000000 0.2227400000000000 H
atom_frac 0.3610330000000000 0.0570980000000000 0.2199560000000000 H
atom_frac 0.7090190000000000 0.7739360000000000 0.2395200000000000 H
atom_frac 0.8595670000000002 0.7506260000000001 0.2642630000000000 H
atom_frac 0.3568230000000001 0.2498590000000000 0.2419520000000000 H
atom_frac 0.7604480000000001 0.3961950000000001 0.2309900000000000 H
atom_frac 0.8064130000000002 0.1277440000000000 0.2557150000000000 H
atom_frac 0.3056640000000000 0.6277500000000001 0.2504820000000000 H
atom_frac 0.5388230000000001 0.8324279999999999 0.2340170000000000 H
atom_frac 0.0288580000000000 0.6918570000000002 0.2587420000000000 H
atom_frac 0.5272260000000001 0.1914860000000000 0.2474370000000000 H
atom_frac 0.8634190000000002 0.5579470000000000 0.2367550000000000 H
atom_frac 0.7048810000000000 0.9668870000000001 0.2615250000000000 H
atom_frac 0.2024540000000000 0.4658890000000001 0.2447260000000000 H
atom_frac 0.2131470000000000 0.2758540000000000 0.2665960000000000 H
atom_frac 0.2661490000000000 0.8986850000000001 0.2751350000000000 H
atom_frac 0.0438450000000000 0.3346420000000000 0.2721170000000000 H
atom_frac 0.3678130000000000 0.0595920000000000 0.2693340000000000 H
atom_frac 0.7158010000000001 0.7764300000000000 0.2889070000000000 H
atom_frac 0.8663480000000001 0.7531200000000001 0.3136500000000000 H
atom_frac 0.3636040000000000 0.2523530000000000 0.2913390000000000 H
atom_frac 0.7672290000000000 0.3986900000000000 0.2803770000000000 H
atom_frac 0.8131940000000000 0.1302380000000000 0.3051020000000000 H
atom_frac 0.3124460000000000 0.6302440000000001 0.2998680000000000 H
atom_frac 0.5456050000000000 0.8349220000000001 0.2834030000000000 H
atom_frac 0.0356400000000000 0.6943510000000002 0.3081280000000000 H
atom_frac 0.5340080000000000 0.1939800000000000 0.2968240000000000 H
atom_frac 0.8702010000000000 0.5604410000000000 0.2861410000000000 H
atom_frac 0.7116620000000000 0.9693820000000000 0.3109109999999999 H
atom_frac 0.2092350000000000 0.4683830000000000 0.2941130000000000 H
atom_frac 0.2199280000000000 0.2783480000000000 0.3159820000000000 H
atom_frac 0.2729310000000000 0.9011790000000001 0.3245210000000000 H
atom_frac 0.0506270000000000 0.3371370000000001 0.3215040000000000 H
atom_frac 0.3745940000000000 0.0620860000000000 0.3187210000000000 H
atom_frac 0.7225810000000000 0.7789239999999999 0.3382839999999999 H
atom_frac 0.8731280000000000 0.7556140000000001 0.3630269999999999 H
atom_frac 0.3703850000000000 0.2548470000000000 0.3407160000000000 H
atom_frac 0.7740089999999999 0.4011830000000000 0.3297540000000000 H
atom_frac 0.8199740000000000 0.1327320000000000 0.3544790000000000 H
atom_frac 0.3192260000000001 0.6327380000000001 0.3492460000000000 H
atom_frac 0.5523850000000000 0.8374160000000000 0.3327809999999999 H
atom_frac 0.0424200000000000 0.6968450000000002 0.3575059999999999 H
atom_frac 0.5407880000000000 0.1964740000000000 0.3462020000000000 H
atom_frac 0.8769810000000001 0.5629340000000000 0.3355190000000000 H
atom_frac 0.7184420000000001 0.9718750000000002 0.3602890000000000 H
atom_frac 0.2160160000000000 0.4708770000000000 0.3434900000000000 H
atom_frac 0.2267090000000000 0.2808410000000000 0.3653600000000000 H
atom_frac 0.2797110000000000 0.9036730000000001 0.3738989999999999 H
atom_frac 0.0574070000000000 0.3396300000000000 0.3708810000000000 H
atom_frac 0.3813740000000000 0.0645800000000000 0.3680980000000000 H
atom_frac 0.7293620000000000 0.7814179999999999 0.3876709999999999 H
atom_frac 0.8799100000000000 0.7581080000000000 0.4124139999999999 H
atom_frac 0.3771660000000000 0.2573410000000000 0.3901030000000000 H
atom_frac 0.7807910000000001 0.4036770000000000 0.3791410000000000 H
atom_frac 0.8267560000000002 0.1352260000000000 0.4038659999999999 H
atom_frac 0.3260070000000000 0.6352320000000001 0.3986330000000000 H
atom_frac 0.5591660000000002 0.8399100000000000 0.3821669999999999 H
atom_frac 0.0492010000000000 0.6993390000000000 0.4068919999999999 H
atom_frac 0.5475690000000000 0.1989680000000000 0.3955879999999999 H
atom_frac 0.8837620000000000 0.5654280000000000 0.3849060000000000 H
atom_frac 0.7252240000000000 0.9743690000000002 0.4096759999999999 H
atom_frac 0.2227970000000000 0.4733710000000000 0.3928770000000000 H
atom_frac 0.2334900000000000 0.2833350000000000 0.4147470000000000 H
atom_frac 0.2864920000000001 0.9061670000000001 0.4232850000000000 H
atom_frac 0.0641880000000000 0.3421240000000000 0.4202680000000000 H
atom_frac 0.3881560000000000 0.0670740000000000 0.4174849999999999 H
atom_frac 0.7361420000000000 0.7839120000000001 0.4370490000000000 H
atom_frac 0.8866900000000001 0.7606010000000000 0.4617910000000000 H
atom_frac 0.3839460000000000 0.2598350000000000 0.4394799999999999 H
atom_frac 0.7875710000000001 0.4061710000000000 0.4285190000000000 H
atom_frac 0.8335360000000001 0.1377200000000000 0.4532440000000000 H
atom_frac 0.3327870000000001 0.6377250000000000 0.4480100000000000 H
atom_frac 0.5659470000000000 0.8424040000000000 0.4315450000000000 H
atom_frac 0.0559820000000000 0.7018320000000000 0.4562700000000000 H
atom_frac 0.5543490000000000 0.2014620000000000 0.4449660000000000 H
atom_frac 0.8905430000000000 0.5679220000000000 0.4342829999999999 H
atom_frac 0.7320040000000000 0.9768630000000001 0.4590529999999999 H
atom_frac 0.2295770000000000 0.4758650000000000 0.4422550000000000 H
atom_frac 0.2402700000000000 0.2858290000000000 0.4641239999999999 H
atom_frac 0.2932730000000000 0.9086600000000000 0.4726630000000000 H
atom_frac 0.0709680000000000 0.3446180000000000 0.4696460000000000 H
atom_frac 0.3949360000000001 0.0695670000000000 0.4668620000000000 H
atom_frac 0.7429240000000000 0.7864060000000000 0.4864350000000000 H
atom_frac 0.8934710000000000 0.7630950000000000 0.5111780000000000 H
atom_frac 0.3907280000000000 0.2623290000000000 0.4888669999999999 H
atom_frac 0.7943519999999999 0.4086650000000000 0.4779050000000000 H
atom_frac 0.8403170000000000 0.1402140000000000 0.5026300000000000 H
atom_frac 0.3395690000000001 0.6402190000000000 0.4973969999999999 H
atom_frac 0.5727280000000000 0.8448980000000000 0.4809320000000000 H
atom_frac 0.0627630000000000 0.7043270000000000 0.5056570000000000 H
atom_frac 0.5611310000000000 0.2039560000000000 0.4943520000000000 H
atom_frac 0.8973240000000002 0.5704160000000001 0.4836700000000000 H
atom_frac 0.7387850000000001 0.9793570000000001 0.5084400000000000 H
atom_frac 0.2363590000000000 0.4783590000000000 0.4916409999999999 H
atom_frac 0.2470510000000000 0.2883230000000000 0.5135110000000001 H
atom_frac 0.3000540000000000 0.9111540000000000 0.5220500000000000 H
atom_frac 0.0777500000000000 0.3471120000000000 0.5190320000000000 H
atom_frac 0.4017170000000000 0.0720620000000000 0.5162490000000000 H
atom_frac 0.7497040000000000 0.7889000000000000 0.5358129999999999 H
atom_frac 0.9002510000000000 0.7655890000000000 0.5605559999999999 H
atom_frac 0.3975080000000000 0.2648220000000000 0.5382450000000000 H
atom_frac 0.8011330000000000 0.4111590000000000 0.5272829999999998 H
atom_frac 0.8470980000000001 0.1427070000000000 0.5520080000000001 H
atom_frac 0.3463490000000000 0.6427130000000000 0.5467750000000000 H
atom_frac 0.5795080000000000 0.8473920000000000 0.5303090000000000 H
atom_frac 0.0695430000000000 0.7068200000000000 0.5550340000000000 H
atom_frac 0.5679110000000001 0.2064490000000000 0.5437300000000000 H
atom_frac 0.9041040000000001 0.5729100000000001 0.5330480000000000 H
atom_frac 0.7455650000000001 0.9818510000000001 0.5578170000000000 H
atom_frac 0.2431390000000000 0.4808520000000000 0.5410190000000000 H
atom_frac 0.2538320000000000 0.2908170000000000 0.5628879999999999 H
atom_frac 0.3068340000000000 0.9136480000000000 0.5714270000000000 H
atom_frac 0.0845300000000000 0.3496060000000000 0.5684100000000000 H
atom_frac 0.4084980000000000 0.0745550000000000 0.5656270000000000 H
atom_frac 0.7564850000000001 0.7913940000000000 0.5851990000000000 H
atom_frac 0.9070330000000001 0.7680830000000000 0.6099419999999999 H
atom_frac 0.4042890000000000 0.2673160000000000 0.5876310000000000 H
atom_frac 0.8079140000000001 0.4136530000000000 0.5766690000000000 H
atom_frac 0.8538790000000001 0.1452020000000000 0.6013940000000000 H
atom_frac 0.3531300000000001 0.6452070000000000 0.5961610000000001 H
atom_frac 0.5862900000000000 0.8498860000000000 0.5796959999999999 H
atom_frac 0.0763250000000000 0.7093140000000000 0.6044209999999999 H
atom_frac 0.5746920000000000 0.2089430000000000 0.5931170000000000 H
atom_frac 0.9108860000000000 0.5754040000000001 0.5824339999999999 H
atom_frac 0.7523470000000000 0.9843450000000001 0.6072040000000000 H
atom_frac 0.2499200000000000 0.4833470000000000 0.5904060000000000 H
atom_frac 0.2606130000000000 0.2933110000000000 0.6122750000000000 H
atom_frac 0.3136160000000000 0.9161420000000000 0.6208139999999999 H
atom_frac 0.0913110000000000 0.3521000000000000 0.6177960000000000 H
atom_frac 0.4152790000000001 0.0770490000000000 0.6150130000000000 H
atom_frac 0.7632650000000001 0.7938870000000001 0.6345769999999999 H
atom_frac 0.9138130000000001 0.7705770000000000 0.6593199999999999 H
atom_frac 0.4110690000000001 0.2698100000000000 0.6370090000000000 H
atom_frac 0.8146940000000000 0.4161470000000000 0.6260470000000000 H
atom_frac 0.8606590000000000 0.1476950000000000 0.6507720000000000 H
atom_frac 0.3599110000000000 0.6477010000000000 0.6455389999999999 H
atom_frac 0.5930700000000001 0.8523790000000000 0.6290740000000000 H
atom_frac 0.0831050000000000 0.7118080000000000 0.6537979999999999 H
atom_frac 0.5814730000000000 0.2114370000000000 0.6424940000000000 H
atom_frac 0.9176660000000002 0.5778980000000001 0.6318120000000000 H
atom_frac 0.7591270000000001 0.9868390000000001 0.6565819999999999 H
atom_frac 0.2567000000000000 0.4858400000000000 0.6397830000000000 H
atom_frac 0.2673930000000000 0.2958050000000000 0.6616529999999999 H
atom_frac 0.3203960000000001 0.9186360000000000 0.6701909999999999 H
atom_frac 0.0980910000000000 0.3545940000000000 0.6671739999999999 H
atom_frac 0.4220590000000000 0.0795430000000000 0.6643909999999998 H
atom_frac 0.7700470000000000 0.7963810000000001 0.6839640000000000 H
atom_frac 0.9205940000000000 0.7730710000000001 0.7087059999999999 H
atom_frac 0.4178510000000000 0.2723040000000000 0.6863950000000000 H
atom_frac 0.8214760000000001 0.4186410000000000 0.6754340000000000 H
atom_frac 0.8674410000000001 0.1501890000000000 0.7001589999999999 H
atom_frac 0.3666920000000000 0.6501950000000000 0.6949250000000000 H
atom_frac 0.5998510000000000 0.8548730000000000 0.6784600000000000 H
atom_frac 0.0898860000000000 0.7143020000000001 0.7031849999999999 H
atom_frac 0.5882540000000001 0.2139310000000000 0.6918810000000000 H
atom_frac 0.9244470000000001 0.5803920000000001 0.6811979999999999 H
atom_frac 0.7659080000000000 0.9893330000000000 0.7059680000000000 H
atom_frac 0.2634820000000000 0.4883340000000000 0.6891699999999998 H
atom_frac 0.2741750000000000 0.2982990000000000 0.7110390000000000 H
atom_frac 0.3271770000000000 0.9211300000000000 0.7195780000000001 H
atom_frac 0.1048730000000000 0.3570880000000000 0.7165610000000000 H
atom_frac 0.4288410000000000 0.0820370000000000 0.7137770000000000 H
atom_frac 0.7768270000000002 0.7988750000000001 0.7333410000000000 H
atom_frac 0.9273740000000001 0.7755650000000001 0.7580839999999999 H
atom_frac 0.4246310000000000 0.2747980000000000 0.7357730000000000 H
atom_frac 0.8282560000000001 0.4211340000000000 0.7248110000000000 H
atom_frac 0.8742210000000001 0.1526830000000000 0.7495360000000000 H
atom_frac 0.3734720000000001 0.6526890000000000 0.7443030000000000 H
atom_frac 0.6066310000000001 0.8573670000000000 0.7278379999999999 H
atom_frac 0.0966660000000000 0.7167960000000001 0.7525629999999999 H
atom_frac 0.5950340000000000 0.2164250000000000 0.7412580000000000 H
atom_frac 0.9312270000000000 0.5828850000000000 0.7305759999999999 H
atom_frac 0.7726880000000000 0.9918260000000000 0.7553460000000000 H
atom_frac 0.2702620000000001 0.4908280000000000 0.7385469999999998 H
atom_frac 0.2809550000000000 0.3007920000000001 0.7604170000000000 H
atom_frac 0.3339570000000001 0.9236240000000000 0.7689559999999999 H
atom_frac 0.1116530000000000 0.3595810000000000 0.7659380000000000 H
atom_frac 0.4356210000000000 0.0845310000000000 0.7631549999999999 H
atom_frac 0.7836080000000001 0.8013690000000001 0.7827279999999999 H
atom_frac 0.9341560000000000 0.7780590000000001 0.8074710000000000 H
atom_frac 0.4314120000000000 0.2772920000000000 0.7851600000000000 H
atom_frac 0.8350370000000000 0.4236280000000000 0.7741979999999999 H
atom_frac 0.8810020000000000 0.1551770000000000 0.7989229999999999 H
atom_frac 0.3802540000000001 0.6551830000000001 0.7936899999999999 H
atom_frac 0.6134130000000000 0.8598610000000000 0.7772240000000000 H
atom_frac 0.1034480000000000 0.7192900000000001 0.8019490000000000 H
atom_frac 0.6018150000000000 0.2189190000000000 0.7906449999999999 H
atom_frac 0.9380090000000001 0.5853800000000000 0.7799629999999999 H
atom_frac 0.7794700000000001 0.9943200000000000 0.8047319999999999 H
atom_frac 0.2770430000000000 0.4933220000000000 0.7879340000000000 H
atom_frac 0.2877360000000000 0.3032870000000000 0.8098029999999999 H
atom_frac 0.3407390000000001 0.9261180000000000 0.8183420000000000 H
atom_frac 0.1184340000000000 0.3620750000000000 0.8153250000000000 H
atom_frac 0.4424020000000000 0.0870250000000000 0.8125420000000000 H
atom_frac 0.5509510000000000 0.7262130000000000 0.1879720000000000 C
atom_frac 0.0037260000000000 0.7933220000000000 0.2126970000000000 C
atom_frac 0.5014080000000000 0.2926240000000000 0.1947270000000000 C
atom_frac 0.7207060000000001 0.4534080000000000 0.1859000000000000 C
atom_frac 0.8337010000000000 0.0661570000000000 0.2106250000000000 C
atom_frac 0.3316750000000001 0.5654600000000001 0.1968170000000000 C
atom_frac 0.0554070000000000 0.2281800000000000 0.2194070000000000 C
atom_frac 0.2253910000000001 0.9553350000000002 0.2214700000000000 C
atom_frac 0.5577310000000000 0.7287070000000000 0.2373490000000000 C
atom_frac 0.0105060000000000 0.7958150000000001 0.2620739999999999 C
atom_frac 0.5081890000000000 0.2951180000000000 0.2441050000000000 C
atom_frac 0.7274870000000000 0.4559020000000000 0.2352780000000000 C
atom_frac 0.8404820000000001 0.0686510000000000 0.2600030000000000 C
atom_frac 0.3384560000000000 0.5679530000000000 0.2461940000000000 C
atom_frac 0.0621870000000000 0.2306740000000000 0.2687850000000000 C
atom_frac 0.2321710000000000 0.9578280000000000 0.2708470000000000 C
atom_frac 0.5645120000000000 0.7312010000000001 0.2867360000000000 C
atom_frac 0.0172870000000000 0.7983090000000000 0.3114610000000000 C
atom_frac 0.5149700000000000 0.2976120000000000 0.2934910000000000 C
atom_frac 0.7342680000000000 0.4583960000000000 0.2846640000000000 C
atom_frac 0.8472630000000000 0.0711450000000000 0.3093890000000000 C
atom_frac 0.3452370000000000 0.5704470000000000 0.2955810000000000 C
atom_frac 0.0689690000000000 0.2331680000000000 0.3181709999999999 C
atom_frac 0.2389520000000000 0.9603220000000000 0.3202340000000000 C
atom_frac 0.5712930000000001 0.7336940000000000 0.3361140000000000 C
atom_frac 0.0240680000000000 0.8008030000000000 0.3608379999999999 C
atom_frac 0.5217500000000000 0.3001060000000000 0.3428689999999999 C
atom_frac 0.7410480000000002 0.4608900000000000 0.3340420000000000 C
atom_frac 0.8540430000000000 0.0736380000000000 0.3587670000000000 C
atom_frac 0.3520170000000001 0.5729410000000000 0.3449590000000000 C
atom_frac 0.0757490000000000 0.2356620000000000 0.3675490000000000 C
atom_frac 0.2457320000000000 0.9628160000000000 0.3696110000000000 C
atom_frac 0.5780740000000000 0.7361880000000000 0.3855000000000000 C
atom_frac 0.0308490000000000 0.8032970000000001 0.4102250000000000 C
atom_frac 0.5285320000000000 0.3026000000000000 0.3922559999999999 C
atom_frac 0.7478300000000000 0.4633840000000000 0.3834290000000000 C
atom_frac 0.8608250000000001 0.0761320000000000 0.4081530000000000 C
atom_frac 0.3587990000000000 0.5754350000000000 0.3943450000000000 C
atom_frac 0.0825300000000000 0.2381560000000000 0.4169350000000000 C
atom_frac 0.2525140000000000 0.9653100000000000 0.4189980000000000 C
atom_frac 0.5848540000000000 0.7386819999999999 0.4348779999999999 C
atom_frac 0.0376290000000000 0.8057910000000001 0.4596030000000000 C
atom_frac 0.5353120000000000 0.3050930000000000 0.4416330000000000 C
atom_frac 0.7546100000000000 0.4658780000000000 0.4328060000000000 C
atom_frac 0.8676050000000001 0.0786260000000000 0.4575310000000000 C
atom_frac 0.3655790000000000 0.5779290000000000 0.4437230000000000 C
atom_frac 0.0893110000000000 0.2406500000000000 0.4663129999999999 C
atom_frac 0.2592940000000000 0.9678040000000000 0.4683760000000000 C
atom_frac 0.5916360000000001 0.7411759999999999 0.4842639999999999 C
atom_frac 0.0444110000000000 0.8082850000000001 0.5089890000000000 C
atom_frac 0.5420930000000000 0.3075870000000000 0.4910200000000000 C
atom_frac 0.7613910000000002 0.4683720000000000 0.4821930000000000 C
atom_frac 0.8743860000000000 0.0811200000000000 0.5069179999999999 C
atom_frac 0.3723600000000001 0.5804230000000000 0.4931090000000000 C
atom_frac 0.0960920000000000 0.2431440000000000 0.5157000000000000 C
atom_frac 0.2660750000000000 0.9702980000000000 0.5177619999999999 C
atom_frac 0.5984159999999999 0.7436700000000001 0.5336419999999999 C
atom_frac 0.0511910000000000 0.8107790000000001 0.5583669999999999 C
atom_frac 0.5488730000000002 0.3100810000000001 0.5403970000000000 C
atom_frac 0.7681710000000000 0.4708650000000000 0.5315700000000000 C
atom_frac 0.8811660000000000 0.0836140000000000 0.5562950000000000 C
atom_frac 0.3791400000000000 0.5829170000000000 0.5424870000000001 C
atom_frac 0.1028720000000000 0.2456370000000000 0.5650770000000001 C
atom_frac 0.2728550000000000 0.9727920000000000 0.5671400000000000 C
atom_frac 0.6051970000000000 0.7461640000000000 0.5830290000000000 C
atom_frac 0.0579720000000000 0.8132730000000001 0.6077530000000000 C
atom_frac 0.5556550000000001 0.3125750000000000 0.5897839999999999 C
atom_frac 0.7749530000000000 0.4733590000000000 0.5809569999999999 C
atom_frac 0.8879480000000000 0.0861080000000000 0.6056819999999999 C
atom_frac 0.3859220000000000 0.5854110000000000 0.5918740000000000 C
atom_frac 0.1096540000000000 0.2481320000000000 0.6144639999999999 C
atom_frac 0.2796370000000000 0.9752860000000000 0.6165259999999999 C
atom_frac 0.6119770000000000 0.7486580000000000 0.6324060000000000 C
atom_frac 0.0647520000000000 0.8157660000000000 0.6571310000000000 C
atom_frac 0.5624350000000000 0.3150690000000000 0.6391619999999999 C
atom_frac 0.7817330000000001 0.4758530000000000 0.6303350000000000 C
atom_frac 0.8947280000000000 0.0886020000000000 0.6550589999999999 C
atom_frac 0.3927020000000001 0.5879040000000000 0.6412509999999999 C
atom_frac 0.1164340000000000 0.2506250000000000 0.6638410000000000 C
atom_frac 0.2864170000000000 0.9777790000000000 0.6659040000000001 C
atom_frac 0.6187589999999999 0.7511520000000000 0.6817930000000000 C
atom_frac 0.0715340000000000 0.8182600000000000 0.7065180000000000 C
atom_frac 0.5692160000000001 0.3175630000000000 0.6885480000000000 C
atom_frac 0.7885140000000000 0.4783470000000001 0.6797209999999999 C
atom_frac 0.9015090000000001 0.0910960000000000 0.7044459999999999 C
atom_frac 0.3994830000000000 0.5903980000000000 0.6906380000000000 C
atom_frac 0.1232150000000000 0.2531190000000000 0.7132279999999999 C
atom_frac 0.2931980000000001 0.9802740000000001 0.7152909999999999 C
atom_frac 0.6255390000000001 0.7536450000000001 0.7311700000000000 C
atom_frac 0.0783140000000000 0.8207540000000000 0.7558950000000000 C
atom_frac 0.5759960000000000 0.3200570000000000 0.7379259999999999 C
atom_frac 0.7952939999999999 0.4808410000000001 0.7290989999999999 C
atom_frac 0.9082890000000001 0.0935890000000000 0.7538239999999999 C
atom_frac 0.4062630000000000 0.5928920000000000 0.7400150000000000 C
atom_frac 0.1299950000000000 0.2556130000000000 0.7626059999999999 C
atom_frac 0.2999790000000000 0.9827669999999999 0.7646679999999999 C
atom_frac 0.6323200000000000 0.7561400000000000 0.7805569999999998 C
atom_frac 0.0850950000000000 0.8232480000000000 0.8052819999999999 C
atom_frac 0.5827780000000000 0.3225510000000000 0.7873120000000000 C
atom_frac 0.8020760000000001 0.4833350000000001 0.7784850000000000 C
atom_frac 0.9150710000000000 0.0960840000000000 0.8032100000000000 C
atom_frac 0.4130450000000001 0.5953860000000000 0.7894020000000000 C
atom_frac 0.1367770000000000 0.2581070000000000 0.8119920000000000 C
atom_frac 0.3067600000000000 0.9852610000000001 0.8140550000000000 C
atom_frac 0.5517919999999999 0.5474640000000000 0.1852160000000000 N
atom_frac 0.0022650000000000 0.9717810000000000 0.2099220000000000 N
atom_frac 0.5006380000000000 0.4714240000000000 0.1974920000000000 N
atom_frac 0.3843390000000000 0.7166630000000000 0.1923310000000000 N
atom_frac 0.6679210000000000 0.3021040000000000 0.1903770000000000 N
atom_frac 0.8879120000000000 0.2181420000000000 0.2150740000000000 N
atom_frac 0.3940510000000000 0.4732210000000000 0.1811980000000000 N
atom_frac 0.1594910000000000 0.0459580000000000 0.2058870000000000 N
atom_frac 0.6583700000000000 0.5456370000000000 0.2015100000000000 N
atom_frac 0.2267700000000000 0.8074270000000000 0.1910250000000000 N
atom_frac 0.3281990000000000 0.7120240000000001 0.2157050000000000 N
atom_frac 0.8255100000000001 0.2113600000000000 0.1916830000000000 N
atom_frac 0.0568280000000000 0.0497110000000000 0.2221810000000000 N
atom_frac 0.1712500000000000 0.8034000000000000 0.2170200000000000 N
atom_frac 0.8995710000000001 0.9755239999999999 0.2262070000000000 N
atom_frac 0.7309430000000000 0.3095080000000000 0.2163900000000000 N
atom_frac 0.5585730000000000 0.5499570000000000 0.2345930000000000 N
atom_frac 0.0090450000000000 0.9742750000000000 0.2593000000000000 N
atom_frac 0.5074180000000000 0.4739170000000000 0.2468700000000000 N
atom_frac 0.3911200000000000 0.7191570000000000 0.2417090000000000 N
atom_frac 0.6747010000000000 0.3045980000000000 0.2397540000000000 N
atom_frac 0.8946930000000001 0.2206350000000000 0.2644520000000000 N
atom_frac 0.4008310000000000 0.4757150000000000 0.2305760000000000 N
atom_frac 0.1662710000000000 0.0484510000000000 0.2552650000000000 N
atom_frac 0.6651500000000000 0.5481300000000000 0.2508870000000000 N
atom_frac 0.2335500000000000 0.8099210000000000 0.2404030000000000 N
atom_frac 0.3349790000000000 0.7145170000000000 0.2650830000000000 N
atom_frac 0.8322910000000000 0.2138540000000000 0.2410600000000000 N
atom_frac 0.0636080000000000 0.0522040000000000 0.2715589999999999 N
atom_frac 0.1780300000000000 0.8058940000000000 0.2663980000000000 N
atom_frac 0.9063510000000001 0.9780180000000001 0.2755850000000000 N
atom_frac 0.7377230000000001 0.3120020000000000 0.2657670000000000 N
atom_frac 0.5653540000000000 0.5524520000000001 0.2839800000000000 N
atom_frac 0.0158270000000000 0.9767690000000001 0.3086870000000000 N
atom_frac 0.5142000000000000 0.4764120000000000 0.2962569999999999 N
atom_frac 0.3979010000000000 0.7216510000000000 0.2910950000000000 N
atom_frac 0.6814830000000001 0.3070920000000000 0.2891410000000000 N
atom_frac 0.9014740000000000 0.2231290000000000 0.3138390000000000 N
atom_frac 0.4076120000000000 0.4782090000000000 0.2799630000000000 N
atom_frac 0.1730520000000000 0.0509450000000000 0.3046509999999999 N
atom_frac 0.6719310000000001 0.5506240000000000 0.3002739999999999 N
atom_frac 0.2403320000000000 0.8124150000000000 0.2897890000000000 N
atom_frac 0.3417610000000000 0.7170110000000000 0.3144690000000000 N
atom_frac 0.8390720000000000 0.2163480000000000 0.2904470000000000 N
atom_frac 0.0703900000000000 0.0546980000000000 0.3209449999999999 N
atom_frac 0.1848110000000000 0.8083880000000000 0.3157840000000000 N
atom_frac 0.9131330000000000 0.9805120000000001 0.3249719999999999 N
atom_frac 0.7445050000000000 0.3144960000000000 0.3151540000000000 N
atom_frac 0.5721340000000001 0.5549450000000000 0.3333570000000000 N
atom_frac 0.0226070000000000 0.9792630000000001 0.3580639999999999 N
atom_frac 0.5209800000000001 0.4789050000000000 0.3456339999999999 N
atom_frac 0.4046810000000000 0.7241450000000000 0.3404730000000000 N
atom_frac 0.6882630000000001 0.3095860000000000 0.3385180000000000 N
atom_frac 0.9082540000000000 0.2256230000000000 0.3632160000000000 N
atom_frac 0.4143930000000001 0.4807020000000000 0.3293400000000000 N
atom_frac 0.1798330000000000 0.0534390000000000 0.3540290000000000 N
atom_frac 0.6787120000000000 0.5531180000000000 0.3496510000000000 N
atom_frac 0.2471120000000000 0.8149090000000000 0.3391670000000000 N
atom_frac 0.3485410000000000 0.7195050000000000 0.3638469999999999 N
atom_frac 0.8458520000000002 0.2188420000000000 0.3398250000000000 N
atom_frac 0.0771700000000000 0.0571920000000000 0.3703230000000000 N
atom_frac 0.1915910000000000 0.8108810000000000 0.3651620000000000 N
atom_frac 0.9199130000000000 0.9830050000000001 0.3743490000000000 N
atom_frac 0.7512850000000000 0.3169900000000000 0.3645309999999999 N
atom_frac 0.5789160000000000 0.5574390000000000 0.3827440000000000 N
atom_frac 0.0293880000000000 0.9817570000000001 0.4074510000000000 N
atom_frac 0.5277610000000000 0.4813990000000000 0.3950210000000000 N
atom_frac 0.4114630000000000 0.7266390000000000 0.3898599999999999 N
atom_frac 0.6950440000000000 0.3120800000000000 0.3879050000000000 N
atom_frac 0.9150360000000001 0.2281170000000000 0.4126030000000000 N
atom_frac 0.4211740000000000 0.4831960000000000 0.3787270000000000 N
atom_frac 0.1866140000000000 0.0559330000000000 0.4034160000000000 N
atom_frac 0.6854930000000000 0.5556120000000000 0.3990380000000000 N
atom_frac 0.2538930000000000 0.8174030000000000 0.3885540000000000 N
atom_frac 0.3553220000000000 0.7219989999999999 0.4132330000000000 N
atom_frac 0.8526340000000000 0.2213360000000000 0.3892110000000000 N
atom_frac 0.0839510000000000 0.0596860000000000 0.4197100000000000 N
atom_frac 0.1983730000000000 0.8133750000000000 0.4145480000000000 N
atom_frac 0.9266940000000001 0.9854990000000001 0.4237360000000000 N
atom_frac 0.7580660000000001 0.3194840000000000 0.4139180000000000 N
atom_frac 0.5856960000000001 0.5599330000000001 0.4321220000000000 N
atom_frac 0.0361680000000000 0.9842510000000001 0.4568280000000000 N
atom_frac 0.5345410000000000 0.4838930000000000 0.4443980000000000 N
atom_frac 0.4182430000000000 0.7291320000000000 0.4392370000000000 N
atom_frac 0.7018240000000002 0.3145740000000001 0.4372830000000000 N
atom_frac 0.9218160000000001 0.2306110000000000 0.4619810000000000 N
atom_frac 0.4279540000000001 0.4856900000000001 0.4281040000000000 N
atom_frac 0.1933940000000000 0.0584270000000000 0.4527929999999999 N
atom_frac 0.6922730000000001 0.5581060000000000 0.4484159999999999 N
atom_frac 0.2606730000000000 0.8198960000000000 0.4379310000000000 N
atom_frac 0.3621020000000000 0.7244930000000001 0.4626110000000000 N
atom_frac 0.8594140000000000 0.2238300000000000 0.4385890000000000 N
atom_frac 0.0907320000000000 0.0621800000000000 0.4690869999999999 N
atom_frac 0.2051530000000000 0.8158690000000001 0.4639260000000000 N
atom_frac 0.9334740000000000 0.9879930000000001 0.4731130000000000 N
atom_frac 0.7648460000000001 0.3219770000000000 0.4632960000000000 N
atom_frac 0.5924770000000001 0.5624270000000001 0.4815079999999999 N
atom_frac 0.0429500000000000 0.9867450000000001 0.5062150000000000 N
atom_frac 0.5413230000000000 0.4863870000000000 0.4937849999999999 N
atom_frac 0.4250240000000000 0.7316260000000000 0.4886240000000000 N
atom_frac 0.7086060000000000 0.3170680000000001 0.4866690000000000 N
atom_frac 0.9285970000000000 0.2331050000000000 0.5113669999999999 N
atom_frac 0.4347350000000000 0.4881840000000001 0.4774909999999999 N
atom_frac 0.2001760000000000 0.0609210000000000 0.5021800000000000 N
atom_frac 0.6990540000000001 0.5606000000000000 0.4978020000000000 N
atom_frac 0.2674550000000000 0.8223900000000000 0.4873179999999999 N
atom_frac 0.3688840000000000 0.7269870000000000 0.5119980000000000 N
atom_frac 0.8661950000000002 0.2263240000000000 0.4879749999999999 N
atom_frac 0.0975130000000000 0.0646740000000000 0.5184739999999999 N
atom_frac 0.2119340000000001 0.8183630000000001 0.5133130000000000 N
atom_frac 0.9402560000000001 0.9904870000000001 0.5225000000000000 N
atom_frac 0.7716280000000000 0.3244710000000000 0.5126820000000000 N
atom_frac 0.5992570000000000 0.5649210000000001 0.5308860000000000 N
atom_frac 0.0497300000000000 0.9892380000000000 0.5555929999999999 N
atom_frac 0.5481030000000000 0.4888810000000000 0.5431630000000000 N
atom_frac 0.4318040000000001 0.7341200000000000 0.5380010000000000 N