#=======================================================
# FHI-aims file: ./geometry.in
# Created using the Atomic Simulation Environment (ASE)
# Tue Feb 11 11:37:56 2020
#=======================================================
lattice_vector 6.5957600000000003 0.0000000000000000 0.0000000000000000 
lattice_vector -1.5450440000000001 7.2328489999999999 0.0000000000000000 
lattice_vector 0.0000000000000000 0.0000000000000000 90.9597310000000050 
atom_frac 0.7022389999999999 0.7714430000000000 0.4667050000000000 H
atom_frac 0.8527860000000000 0.7481320000000000 0.5274360000000000 H
atom_frac 0.3500430000000000 0.2473650000000000 0.4726740000000000 H
atom_frac 0.7536680000000000 0.3937020000000000 0.4457680000000000 H
atom_frac 0.7996330000000000 0.1252500000000000 0.5064560000000000 H
atom_frac 0.2988840000000000 0.6252560000000000 0.4936110000000000 H
atom_frac 0.5320430000000000 0.8299350000000000 0.4531970000000001 H
atom_frac 0.0220780000000000 0.6893629999999999 0.5138840000000000 H
atom_frac 0.5204460000000000 0.1889920000000000 0.4861380000000000 H
atom_frac 0.8566390000000000 0.5554530000000000 0.4599180000000000 H
atom_frac 0.6981000000000001 0.9643940000000000 0.5207150000000000 H
atom_frac 0.1956740000000000 0.4633950000000000 0.4794840000000000 H
atom_frac 0.2063670000000000 0.2733600000000000 0.5331620000000000 H
atom_frac 0.2593690000000000 0.8961910000000000 0.5541210000000000 H
atom_frac 0.0370650000000000 0.3321490000000000 0.5467150000000000 H
atom_frac 0.3610330000000000 0.0570980000000000 0.5398830000000000 H
atom_frac 0.5509510000000000 0.7262130000000000 0.4613770000000000 C
atom_frac 0.0037260000000000 0.7933220000000000 0.5220640000000000 C
atom_frac 0.5014080000000000 0.2926240000000000 0.4779580000000000 C
atom_frac 0.7207060000000000 0.4534080000000000 0.4562919999999999 C
atom_frac 0.8337010000000000 0.0661570000000000 0.5169790000000000 C
atom_frac 0.3316750000000001 0.5654600000000000 0.4830870000000000 C
atom_frac 0.0554070000000000 0.2281800000000000 0.5385350000000000 C
atom_frac 0.2253910000000000 0.9553350000000000 0.5435970000000000 C
atom_frac 0.5517919999999999 0.5474640000000000 0.4546120000000001 N
atom_frac 0.0022650000000000 0.9717810000000000 0.5152550000000000 N
atom_frac 0.5006380000000000 0.4714240000000000 0.4847450000000000 N
atom_frac 0.3843390000000000 0.7166630000000000 0.4720770000000000 N
atom_frac 0.6679210000000000 0.3021040000000000 0.4672799999999999 N
atom_frac 0.8879120000000000 0.2181420000000000 0.5279010000000000 N
atom_frac 0.3940510000000000 0.4732210000000000 0.4447520000000000 N
atom_frac 0.1594910000000000 0.0459580000000000 0.5053500000000000 N
atom_frac 0.6583700000000000 0.5456370000000000 0.4946060000000000 N
atom_frac 0.2267700000000000 0.8074270000000000 0.4688720000000001 N
atom_frac 0.3281990000000000 0.7120240000000000 0.5294480000000000 N
atom_frac 0.8255100000000000 0.2113600000000000 0.4704850000000000 N
atom_frac 0.0568280000000000 0.0497110000000000 0.5453440000000001 N
atom_frac 0.1712500000000000 0.8034000000000000 0.5326760000000000 N
atom_frac 0.8995710000000000 0.9755239999999999 0.5552260000000000 N
atom_frac 0.7309430000000000 0.3095080000000000 0.5311280000000000 N
atom_frac 0.2624250000000000 0.5663610000000000 0.4423200000000000 O
atom_frac 0.2913050000000000 0.9530080000000000 0.5029180000000000 O
atom_frac 0.7899850000000000 0.4524860000000000 0.4970150000000000 O
atom_frac 0.3972810000000001 0.3194280000000000 0.4397550000000000 O
atom_frac 0.1556400000000000 0.1995140000000000 0.5003320000000000 O
atom_frac 0.6551709999999999 0.6994300000000000 0.4996240000000001 O
atom_frac 0.2624230000000000 0.9362940000000000 0.4599840000000000 O
atom_frac 0.2914860000000000 0.5826020000000000 0.5206270000000000 O
atom_frac 0.7898060000000000 0.0824430000000000 0.4793510000000000 O
atom_frac 0.0621050000000000 0.7541490000000000 0.4757470000000000 O
atom_frac 0.9902069999999999 0.2646690000000000 0.4636320000000000 O
atom_frac 0.5656930000000000 0.2561780000000000 0.5243409999999999 O
atom_frac 0.7677570000000000 0.0684840000000000 0.5576580000000000 O
atom_frac 0.9033620000000000 0.8219470000000000 0.5602450000000000 O
atom_frac 0.7676780000000000 0.4389400000000000 0.5399720000000000 O
atom_frac 0.4934390000000000 0.7653329999999999 0.5362350000000000 O
